####################################################################### 
# 
# This file contains crystal structure data downloaded from the 
# Cambridge Structural Database (CSD) hosted by the Cambridge 
# Crystallographic Data Centre (CCDC).
# 
# Full information about CCDC data access policies and citation 
# guidelines are available at http://www.ccdc.cam.ac.uk/access/V1 
# 
# Audit and citation data items may have been added by the CCDC. 
# Please retain this information to preserve the provenance of 
# this file and to allow appropriate attribution of the data. 
# 
#######################################################################

data_ABUBTE
#This CIF has been generated from an entry in the Cambridge Structural Database
_database_code_depnum_ccdc_archive 'CCDC 1100275'
_database_code_CSD               ABUBTE
loop_
_citation_id
_citation_doi
_citation_year
1 10.1107/S0567740876009035 1976
_audit_creation_method           'Created from the CSD'
_audit_update_record             
;
2025-02-26 downloaded from the CCDC.
;
_database_code_NBS               500106
_chemical_formula_moiety         '2(C4 H10 N1 O2 1+),Br6 Te1 2-'
_chemical_name_systematic        
'DL-\a-Ammonio-n-butyric acid hexabromotellurium(iv)'
_chemical_absolute_configuration unk
_diffrn_ambient_temperature      295
_exptl_crystal_density_diffrn    2.516
#These two values have been output from a single CSD field.
_refine_ls_R_factor_gt           0.041
_refine_ls_wR_factor_gt          0.041
_diffrn_radiation_probe          x-ray
_symmetry_cell_setting           monoclinic
_symmetry_space_group_name_H-M   'P 21/c'
_symmetry_Int_Tables_number      14
_space_group_name_Hall           '-P 2ybc'
loop_
_symmetry_equiv_pos_site_id
_symmetry_equiv_pos_as_xyz
1 x,y,z
2 -x,1/2+y,1/2-z
3 -x,-y,-z
4 x,1/2-y,1/2+z
_cell_length_a                   11.443(4)
_cell_length_b                   7.881(3)
_cell_length_c                   12.886(4)
_cell_angle_alpha                90
_cell_angle_beta                 112.19(5)
_cell_angle_gamma                90
_cell_volume                     1076.02
_cell_formula_units_Z            2
loop_
_atom_site_label
_atom_site_type_symbol
_atom_site_fract_x
_atom_site_fract_y
_atom_site_fract_z
Te1 Te 0.00000 0.00000 0.00000
Br1 Br 0.11840 0.21370 -0.09150
Br2 Br -0.07480 0.27560 0.08230
Br3 Br 0.20880 -0.02220 0.18790
Br1B Br -0.11840 -0.21370 0.09150
Br2B Br 0.07480 -0.27560 -0.08230
Br3B Br -0.20880 0.02220 -0.18790
O1 O 0.46120 0.35270 0.38550
O2 O 0.37220 0.59640 0.40680
N1 N 0.17320 0.55320 0.21790
C1 C 0.37930 0.47290 0.35300
C2 C 0.28570 0.44830 0.23530
C3 C 0.34070 0.50680 0.14620
C4 C 0.43930 0.39180 0.13730
H1 H 0.51600 0.36900 0.46600
H2 H 0.13400 0.55000 0.28400
H3 H 0.09900 0.55700 0.13600
H4 H 0.19500 0.65700 0.22500
H5 H 0.38100 0.63300 0.17000
H6 H 0.26200 0.51000 0.06500
H7 H 0.51600 0.35400 0.21800
H8 H 0.39100 0.27800 0.11500
H9 H 0.47600 0.41100 0.07300
H10 H 0.25800 0.31100 0.22000

#END
