####################################################################### 
# 
# This file contains crystal structure data downloaded from the 
# Cambridge Structural Database (CSD) hosted by the Cambridge 
# Crystallographic Data Centre (CCDC).
# 
# Full information about CCDC data access policies and citation 
# guidelines are available at http://www.ccdc.cam.ac.uk/access/V1 
# 
# Audit and citation data items may have been added by the CCDC. 
# Please retain this information to preserve the provenance of 
# this file and to allow appropriate attribution of the data. 
# 
#######################################################################

data_vkb08
_audit_block_doi                 10.5517/ccdc.csd.cc1mk0sz
_database_code_depnum_ccdc_archive 'CCDC 1505911'
loop_
_citation_id
_citation_doi
_citation_year
1 10.1039/C6SC04478F 2017
_audit_update_record
;
2016-09-22 deposited with the CCDC.	2025-02-27 downloaded from the CCDC.
;

_audit_creation_method           SHELXL-97
_chemical_name_systematic        
; 
 ? 
;
_chemical_name_common            ?
_chemical_melting_point          ?
_chemical_formula_moiety         '3(C6 F12 I2), 2(C18 H38 N2 Na O6 1+),2(Cl 1-)'
_chemical_formula_sum            'C54 H72 Cl2 F36 I6 N4 Na2 O12'
_chemical_formula_weight         2531.44

loop_
_atom_type_symbol
_atom_type_description
_atom_type_scat_dispersion_real
_atom_type_scat_dispersion_imag
_atom_type_scat_source
C C 0.0033 0.0016 'International Tables Vol C Tables 4.2.6.8 and 6.1.1.4'
H H 0.0000 0.0000 'International Tables Vol C Tables 4.2.6.8 and 6.1.1.4'
N N 0.0061 0.0033 'International Tables Vol C Tables 4.2.6.8 and 6.1.1.4'
O O 0.0106 0.0060 'International Tables Vol C Tables 4.2.6.8 and 6.1.1.4'
F F 0.0171 0.0103 'International Tables Vol C Tables 4.2.6.8 and 6.1.1.4'
Na Na 0.0362 0.0249 'International Tables Vol C Tables 4.2.6.8 and 6.1.1.4'
Cl Cl 0.1484 0.1585 'International Tables Vol C Tables 4.2.6.8 and 6.1.1.4'
I I -0.4742 1.8119 'International Tables Vol C Tables 4.2.6.8 and 6.1.1.4'

_symmetry_cell_setting           Monoclinic
_space_group_IT_number           4
_space_group_name_H-M_alt        'P 21'
_space_group_name_Hall           'P 2yb'

loop_
_symmetry_equiv_pos_as_xyz
'x, y, z'
'-x, y+1/2, -z'

_cell_length_a                   12.3140(12)
_cell_length_b                   22.647(2)
_cell_length_c                   15.5410(15)
_cell_angle_alpha                90.00
_cell_angle_beta                 92.803(10)
_cell_angle_gamma                90.00
_cell_volume                     4328.8(7)
_cell_formula_units_Z            2
_cell_measurement_temperature    103(2)
_cell_measurement_reflns_used    9990
_cell_measurement_theta_min      2.23
_cell_measurement_theta_max      31.46
_exptl_crystal_description       block
_exptl_crystal_colour            colourless
_exptl_crystal_size_min          0.15
_exptl_crystal_size_mid          0.22
_exptl_crystal_size_max          0.24
_exptl_crystal_density_meas      ?
_exptl_crystal_density_diffrn    1.942
_exptl_crystal_density_method    'not measured'
_exptl_crystal_F_000             2436
_exptl_absorpt_coefficient_mu    2.354
_exptl_absorpt_correction_type   multi-scan
_exptl_absorpt_process_details   
'Bruker (2001). SADABS. Bruker AXS Inc., Madison, Wisconsin, USA.'
_exptl_absorpt_correction_T_min  0.6644
_exptl_absorpt_correction_T_max  0.7466

_exptl_special_details           
; 
Bruker KRYOFLEX low temperature device. 
;

_diffrn_ambient_temperature      103(2)
_diffrn_radiation_wavelength     0.71073
_diffrn_radiation_type           MoK\a
_diffrn_radiation_source         'fine-focus sealed tube'
_diffrn_radiation_monochromator  graphite
_diffrn_measurement_device_type  'Bruker APEX-II CCD'
_diffrn_measurement_method       '\f and \w scans'
_diffrn_standards_decay_%        0.00
_diffrn_reflns_number            63086
_diffrn_reflns_av_R_equivalents  0.0299
_diffrn_reflns_av_sigmaI/netI    0.0455
_diffrn_reflns_limit_h_min       -10
_diffrn_reflns_limit_h_max       18
_diffrn_reflns_limit_k_min       -32
_diffrn_reflns_limit_k_max       33
_diffrn_reflns_limit_l_min       -23
_diffrn_reflns_limit_l_max       22
_diffrn_reflns_theta_min         1.59
_diffrn_reflns_theta_max         33.42
_reflns_number_total             28274
_reflns_number_gt                23461
_reflns_threshold_expression     'I > 2\s(I)'

_computing_data_collection       'Bruker APEX2'
_computing_cell_refinement       'Bruker SAINT'
_computing_data_reduction        'Bruker SAINT'
_computing_structure_solution    
;
SHELXS (Sheldrick, G. M. (2008). Acta Cryst. A64, 112-122)
;
_computing_structure_refinement  
;
SHELXL (Sheldrick, G. M. (2008). Acta Cryst. A64, 112-122)
;

_computing_molecular_graphics    
;
ORTEP-3 (Farrugia, L.J. (1997) Jour. Appl. Cryst. 30, 565)
Mercury (Macrae, C. F., Edgington, P. R., McCabe, P., Pidcock, E., 
Shields, G. P., Taylor, R., Towler, M. & van de Streek, J. (2006). 
J. Appl. Cryst. 39, 453-457)
;
_computing_publication_material  SHELXL

_iucr_refine_instructions_details 
;
TITL vkb08 in P2(1)
CELL 0.71073  12.3140  22.647  15.5410  90.000  92.803  90.000
ZERR    2.00   0.0012   0.002   0.0015   0.000   0.010   0.000
LATT  -1
SYMM -X, 0.5+Y, -Z
SFAC C  H  N  O  F  Na Cl I
UNIT 108  144  8  24  72  4  4  12
L.S. 6
BOND $H
CONF
ACTA
FMAP 2
PLAN 40
SIZE 0.15 0.22 0.24
TEMP -170.000
TWIN
WGHT    0.039400    1.738700
BASF   0.45347
FVAR       0.04655   0.69459   0.54687   0.89754
CL1   7    0.096569    0.237710    0.744740    11.00000    0.03519    0.03097 =
         0.02075   -0.00134    0.00249   -0.00261
CL2   7    0.404090    0.917110    0.706137    11.00000    0.03084    0.03163 =
         0.02169    0.00088    0.00378    0.00210
MOLE   1
NA1   6    0.077838    0.441209    0.272219    11.00000    0.02332    0.02901 =
         0.04479    0.00795    0.00044    0.00242
O1    4   -0.022457    0.349323    0.294486    11.00000    0.02163    0.03520 =
         0.05871    0.00109    0.00210    0.00055
O2    4   -0.023951    0.403751    0.136262    11.00000    0.03170    0.05264 =
         0.04979   -0.00153    0.00051    0.00520
O3    4    0.233449    0.377828    0.302671    11.00000    0.02179    0.04081 =
         0.06130    0.00462   -0.00830    0.00042
O4    4    0.191183    0.466301    0.419017    11.00000    0.03061    0.04636 =
         0.03867    0.01209   -0.00073   -0.00153
O5    4   -0.062429    0.518559    0.260411    11.00000    0.03782    0.03510 =
         0.05677    0.01428    0.00764    0.00905
O6    4    0.153009    0.535653    0.228210    11.00000    0.03449    0.04445 =
         0.06569    0.01783    0.01160    0.00746
N1    3    0.207093    0.431910    0.131282    11.00000    0.03020    0.05381 =
         0.04956    0.00639    0.00336    0.00537
N2    3   -0.043077    0.446763    0.417263    11.00000    0.02481    0.03379 =
         0.04063    0.00976    0.00452    0.00124
C1    1   -0.113991    0.393879    0.414208    11.00000    0.02625    0.03619 =
         0.05554    0.00975    0.01021    0.00047
AFIX  23
H1A   2   -0.179347    0.401697    0.376280    11.00000   -1.20000
H1B   2   -0.138094    0.385122    0.472699    11.00000   -1.20000
AFIX   0
C2    1   -0.053068    0.341004    0.380341    11.00000    0.03364    0.02941 =
         0.05771    0.00668    0.01318    0.00004
AFIX  23
H2A   2    0.012936    0.333948    0.417879    11.00000   -1.20000
H2B   2   -0.099755    0.305522    0.382920    11.00000   -1.20000
AFIX   0
C3    1   -0.106685    0.338190    0.230103    11.00000    0.02769    0.03732 =
         0.07065   -0.01062   -0.00215   -0.00303
AFIX  23
H3A   2   -0.166983    0.366557    0.236249    11.00000   -1.20000
H3B   2   -0.135611    0.297768    0.236996    11.00000   -1.20000
AFIX   0
C4    1   -0.061280    0.344581    0.143368    11.00000    0.03653    0.05027 =
         0.05340   -0.00715   -0.00265    0.00532
AFIX  23
H4A   2   -0.000394    0.316607    0.137102    11.00000   -1.20000
H4B   2   -0.118059    0.336131    0.097726    11.00000   -1.20000
AFIX   0
C5    1    0.026954    0.415797    0.056824    11.00000    0.03201    0.07830 =
         0.04084   -0.00170   -0.00116    0.00724
AFIX  23
H5A   2    0.020251    0.458393    0.043270    11.00000   -1.20000
H5B   2   -0.010789    0.393429    0.009499    11.00000   -1.20000
AFIX   0
C6    1    0.148731    0.398318    0.062888    11.00000    0.03330    0.08224 =
         0.04743   -0.00736   -0.00140    0.01449
AFIX  23
H6A   2    0.155568    0.355541    0.075100    11.00000   -1.20000
H6B   2    0.181455    0.406238    0.007111    11.00000   -1.20000
AFIX   0
C7    1    0.306434    0.398575    0.163151    11.00000    0.02419    0.06058 =
         0.06081   -0.00490   -0.00063    0.00450
AFIX  23
H7A   2    0.340049    0.378951    0.114130    11.00000   -1.20000
H7B   2    0.360219    0.426355    0.189880    11.00000   -1.20000
AFIX   0
C8    1    0.276313    0.353372    0.227757    11.00000    0.02834    0.04109 =
         0.07461   -0.00327   -0.01090    0.01220
AFIX  23
H8A   2    0.221811    0.326234    0.200476    11.00000   -1.20000
H8B   2    0.341619    0.329808    0.244699    11.00000   -1.20000
AFIX   0
C9    1    0.314711    0.396933    0.365029    11.00000    0.02392    0.04657 =
         0.05301    0.01601   -0.00533    0.00012
AFIX  23
H9A   2    0.357192    0.429872    0.341701    11.00000   -1.20000
H9B   2    0.365117    0.364093    0.380268    11.00000   -1.20000
AFIX   0
C10   1    0.257763    0.416858    0.442958    11.00000    0.02770    0.06393 =
         0.04253    0.01810   -0.00496    0.00242
AFIX  23
H10A  2    0.212399    0.384454    0.464424    11.00000   -1.20000
H10B  2    0.311684    0.428180    0.489374    11.00000   -1.20000
AFIX   0
C11   1    0.126617    0.485985    0.485592    11.00000    0.03828    0.06222 =
         0.03604   -0.00261   -0.00495   -0.00346
AFIX  23
H11A  2    0.103477    0.527122    0.473340    11.00000   -1.20000
H11B  2    0.171141    0.486116    0.540387    11.00000   -1.20000
AFIX   0
C12   1    0.027146    0.448471    0.496466    11.00000    0.04725    0.05471 =
         0.03567    0.00222    0.01198   -0.00203
AFIX  23
H12A  2    0.049912    0.407800    0.512206    11.00000   -1.20000
H12B  2   -0.014517    0.464540    0.544070    11.00000   -1.20000
AFIX   0
C13   1   -0.109217    0.501200    0.409043    11.00000    0.02719    0.03955 =
         0.05614    0.00090    0.01424    0.00135
AFIX  23
H13A  2   -0.065139    0.535261    0.430183    11.00000   -1.20000
H13B  2   -0.172650    0.497687    0.445464    11.00000   -1.20000
AFIX   0
C14   1   -0.148414    0.512276    0.317244    11.00000    0.03429    0.03361 =
         0.06358    0.01132    0.00332    0.01068
AFIX  23
H14A  2   -0.195445    0.479036    0.297356    11.00000   -1.20000
H14B  2   -0.193133    0.548622    0.314946    11.00000   -1.20000
AFIX   0
C15   1   -0.018531    0.575710    0.258745    11.00000    0.04295    0.03722 =
         0.06444    0.01582    0.00836    0.01303
AFIX  23
H15A  2    0.011766    0.586775    0.316691    11.00000   -1.20000
H15B  2   -0.075702    0.604586    0.241031    11.00000   -1.20000
AFIX   0
C16   1    0.070608    0.575657    0.194601    11.00000    0.04818    0.04614 =
         0.06481    0.02650    0.00612    0.00843
AFIX  23
H16A  2    0.041611    0.562223    0.137370    11.00000   -1.20000
H16B  2    0.101004    0.615837    0.188637    11.00000   -1.20000
AFIX   0
C17   1    0.247902    0.532857    0.177570    11.00000    0.03575    0.05086 =
         0.08186    0.01790    0.01426   -0.00945
AFIX  23
H17A  2    0.310992    0.519902    0.214780    11.00000   -1.20000
H17B  2    0.263979    0.572821    0.155732    11.00000   -1.20000
AFIX   0
C18   1    0.233314    0.491770    0.103826    11.00000    0.04141    0.07450 =
         0.04889    0.00869    0.01459   -0.00110
AFIX  23
H18A  2    0.174118    0.506520    0.064099    11.00000   -1.20000
H18B  2    0.300945    0.490789    0.071934    11.00000   -1.20000
AFIX   0
MOLE 2
SADI 0.010 N4 C19A N4  C30A N4  C31A N4 C19B N4  C30B N4  C31B
SADI 0.020 N4 C20A N4  C29A N4  C32A N4 C20B N4  C29B N4  C32B
SADI 0.010 O7 C20A O10 C29A O11 C32A O7 C20B O10 C29B O11 C32B
SADI 0.020 O7 C19A O10 C30A O11 C31A O7 C19B O10 C30B O11 C31B
SADI 0.010 C19A C20A C29A C30A C31A C32A C19B C20B C29B C30B C31B C32B
EADP C20A C20B
EADP C29A C29B
EADP C31A C31B
SIMU 0.02 O7 > C32B
NA2   6    0.576328    0.218519    0.721409    11.00000    0.02372    0.03162 =
         0.04016   -0.00371    0.00284    0.00043
O7    4    0.475884    0.251070    0.584186    11.00000    0.03402    0.08296 =
         0.04928    0.01750    0.00832    0.00661
O8    4    0.463458    0.307093    0.737818    11.00000    0.03316    0.03968 =
         0.06637   -0.00342    0.00524    0.00208
O9    4    0.690495    0.203169    0.866384    11.00000    0.02827    0.06223 =
         0.04196   -0.00768    0.00214    0.00251
O10   4    0.740370    0.282835    0.740694    11.00000    0.03541    0.07021 =
         0.05793   -0.00306   -0.00183   -0.02100
O11   4    0.646305    0.121757    0.679397    11.00000    0.08268    0.03299 =
         0.09472   -0.00216    0.04441    0.00674
O12   4    0.429738    0.138248    0.718839    11.00000    0.05060    0.03200 =
         0.06813   -0.00942   -0.01359    0.00610
N3    3    0.453129    0.214925    0.869646    11.00000    0.02690    0.04248 =
         0.05090   -0.00388    0.00244   -0.00204
N4    3    0.702812    0.221894    0.580789    11.00000    0.04846    0.04717 =
         0.03712   -0.00350    0.00707    0.00763
C21   1    0.421064    0.304149    0.587359    11.00000    0.05231    0.06544 =
         0.07161    0.02431   -0.00075    0.00028
AFIX  23
H21A  2    0.360565    0.304899    0.543010    11.00000   -1.20000
H21B  2    0.471003    0.337192    0.575980    11.00000   -1.20000
AFIX   0
C22   1    0.378180    0.310450    0.674028    11.00000    0.03888    0.04825 =
         0.08189    0.00061   -0.00553    0.01321
AFIX  23
H22A  2    0.340581    0.348903    0.678282    11.00000   -1.20000
H22B  2    0.324667    0.278762    0.683452    11.00000   -1.20000
AFIX   0
C23   1    0.434937    0.318550    0.823172    11.00000    0.03715    0.03503 =
         0.06742   -0.01249    0.00796   -0.00215
AFIX  23
H23A  2    0.385404    0.352984    0.823091    11.00000   -1.20000
H23B  2    0.501397    0.328997    0.858301    11.00000   -1.20000
AFIX   0
C24   1    0.380081    0.266566    0.864580    11.00000    0.03131    0.03741 =
         0.05843   -0.01139    0.01263    0.00066
AFIX  23
H24A  2    0.359582    0.277617    0.923246    11.00000   -1.20000
H24B  2    0.312828    0.256253    0.830363    11.00000   -1.20000
AFIX   0
C25   1    0.524943    0.218742    0.946826    11.00000    0.03491    0.06565 =
         0.04429   -0.01073    0.01692   -0.00249
AFIX  23
H25A  2    0.486486    0.203872    0.996932    11.00000   -1.20000
H25B  2    0.544483    0.260549    0.957941    11.00000   -1.20000
AFIX   0
C26   1    0.629605    0.182231    0.936517    11.00000    0.03564    0.07917 =
         0.03840    0.00499   -0.00332    0.00862
AFIX  23
H26A  2    0.675519    0.184419    0.990522    11.00000   -1.20000
H26B  2    0.609890    0.140336    0.926415    11.00000   -1.20000
AFIX   0
C27   1    0.750089    0.256119    0.885624    11.00000    0.02991    0.07645 =
         0.05409   -0.02489   -0.00404   -0.00288
AFIX  23
H27A  2    0.798743    0.250406    0.937570    11.00000   -1.20000
H27B  2    0.699503    0.288920    0.896722    11.00000   -1.20000
AFIX   0
C28   1    0.815232    0.270158    0.809755    11.00000    0.02335    0.07499 =
         0.05400   -0.01965    0.00064   -0.00434
AFIX  23
H28A  2    0.862819    0.304640    0.822312    11.00000   -1.20000
H28B  2    0.861337    0.236079    0.795409    11.00000   -1.20000
AFIX   0
C33   1    0.562354    0.082016    0.651043    11.00000    0.08429    0.04470 =
         0.07112   -0.02061    0.00074    0.01431
AFIX  23
H33A  2    0.592694    0.041916    0.644055    11.00000   -1.20000
H33B  2    0.529827    0.095043    0.594692    11.00000   -1.20000
AFIX   0
C34   1    0.477912    0.081065    0.716338    11.00000    0.04465    0.02984 =
         0.09095   -0.00631   -0.00587    0.00020
AFIX  23
H34A  2    0.421863    0.051105    0.700590    11.00000   -1.20000
H34B  2    0.511318    0.070830    0.773638    11.00000   -1.20000
AFIX   0
C35   1    0.347591    0.144311    0.778661    11.00000    0.02666    0.04179 =
         0.09450   -0.01052   -0.01116    0.00081
AFIX  23
H35A  2    0.306541    0.106812    0.781132    11.00000   -1.20000
H35B  2    0.296234    0.175515    0.758277    11.00000   -1.20000
AFIX   0
C36   1    0.391765    0.159743    0.867941    11.00000    0.02838    0.03727 =
         0.07785    0.00300    0.00896   -0.00243
AFIX  23
H36A  2    0.330643    0.163269    0.906703    11.00000   -1.20000
H36B  2    0.439599    0.127412    0.889920    11.00000   -1.20000
AFIX   0
PART 1
C19A  1    0.642729    0.253063    0.511280    21.00000    0.05512    0.07184 =
         0.05501    0.01262    0.00480    0.01993
AFIX  23
H19A  2    0.647108    0.296156    0.521582    21.00000   -1.20000
H19B  2    0.675772    0.244566    0.455808    21.00000   -1.20000
AFIX   0
C20A  1    0.529206    0.234617    0.506623    21.00000    0.05188    0.12600 =
         0.04235    0.00150    0.00410   -0.01106
AFIX  23
H20A  2    0.491096    0.253333    0.456110    21.00000   -1.20000
H20B  2    0.525139    0.191265    0.498939    21.00000   -1.20000
AFIX   0
C29A  1    0.784248    0.303946    0.662544    21.00000    0.05026    0.07686 =
         0.06749    0.02071   -0.00642   -0.02421
AFIX  23
H29A  2    0.852134    0.326240    0.675950    21.00000   -1.20000
H29B  2    0.731561    0.330737    0.632305    21.00000   -1.20000
AFIX   0
C30A  1    0.806498    0.253711    0.607983    21.00000    0.03297    0.05565 =
         0.05033    0.00229    0.01114   -0.00654
AFIX  23
H30A  2    0.856288    0.226121    0.639726    21.00000   -1.20000
H30B  2    0.842873    0.267480    0.556226    21.00000   -1.20000
AFIX   0
C31A  1    0.732401    0.161073    0.558808    21.00000    0.03534    0.05358 =
         0.05271    0.00158    0.00843    0.01498
AFIX  23
H31A  2    0.674273    0.143849    0.520338    21.00000   -1.20000
H31B  2    0.800267    0.161574    0.527192    21.00000   -1.20000
AFIX   0
C32A  1    0.748117    0.124148    0.635335    21.00000    0.03362    0.04733 =
         0.05885   -0.00466    0.00248    0.00834
AFIX  23
H32A  2    0.770061    0.083859    0.618596    21.00000   -1.20000
H32B  2    0.806327    0.140891    0.674203    21.00000   -1.20000
AFIX   0
part 2
C19B  1    0.625376    0.221203    0.505031   -21.00000    0.06565    0.06267 =
         0.03337   -0.00349    0.01622    0.03350
AFIX  23
H19C  2    0.665198    0.235553    0.455314   -21.00000   -1.20000
H19D  2    0.606683    0.179374    0.493186   -21.00000   -1.20000
C20B  1    0.530795    0.251499    0.505051   -21.00000    0.05188    0.12600 =
         0.04235    0.00150    0.00410   -0.01106
AFIX  23
H20C  2    0.480934    0.235096    0.459192   -21.00000   -1.20000
H20D  2    0.545626    0.293057    0.489728   -21.00000   -1.20000
AFIX   0
C29B  1    0.812148    0.287687    0.669754   -21.00000    0.05026    0.07686 =
         0.06749    0.02071   -0.00642   -0.02421
AFIX  23
H29C  2    0.847825    0.326872    0.671480   -21.00000   -1.20000
H29D  2    0.869533    0.257146    0.675813   -21.00000   -1.20000
AFIX   0
C30B  1    0.752334    0.280323    0.588023   -21.00000    0.03215    0.05786 =
         0.06223    0.02639    0.01033   -0.00637
AFIX  23
H30C  2    0.802174    0.285943    0.540607   -21.00000   -1.20000
H30D  2    0.694839    0.310815    0.582185   -21.00000   -1.20000
AFIX   0
C31B  1    0.763477    0.166203    0.582311   -21.00000    0.03534    0.05358 =
         0.05271    0.00158    0.00843    0.01498
AFIX  23
H31C  2    0.798740    0.161412    0.526841   -21.00000   -1.20000
H31D  2    0.821547    0.168033    0.628594   -21.00000   -1.20000
AFIX   0
C32B  1    0.695919    0.115458    0.596334   -21.00000    0.05580    0.03642 =
         0.05753   -0.00598    0.01082    0.02085
AFIX  23
H32C  2    0.740365    0.079038    0.596049   -21.00000   -1.20000
H32D  2    0.638572    0.112449    0.549626   -21.00000   -1.20000
AFIX   0
part 0
MOLE 3
I1    8    0.091555    0.371596    0.775764    11.00000    0.02573    0.03293 =
         0.04025    0.00074    0.00549   -0.00266
I2    8    0.410325    0.785391    0.744656    11.00000    0.02473    0.03474 =
         0.03569   -0.00680    0.00543   -0.00487
F1    5    0.474032    0.667024    0.698360    11.00000    0.03739    0.04152 =
         0.08995   -0.01576    0.03776   -0.00977
F2    5    0.477716    0.678744    0.835892    11.00000    0.04496    0.05212 =
         0.07549    0.00952   -0.02682   -0.00949
F3    5    0.252708    0.674967    0.690618    11.00000    0.03850    0.04367 =
         0.04544    0.01338   -0.00905   -0.01542
F4    5    0.254934    0.685396    0.829624    11.00000    0.04554    0.03542 =
         0.05392   -0.00537    0.02746    0.00138
F5    5    0.365328    0.580965    0.849515    11.00000    0.04795    0.04509 =
         0.05694    0.01254   -0.01715   -0.00649
F6    5    0.358073    0.570170    0.710101    11.00000    0.03640    0.04142 =
         0.06771   -0.02069    0.02931   -0.00967
F7    5    0.132902    0.582621    0.711524    11.00000    0.02782    0.04435 =
         0.07637    0.02006   -0.01146   -0.00879
F8    5    0.149030    0.582506    0.851635    11.00000    0.05022    0.03986 =
         0.06205   -0.01111    0.03518   -0.00316
F9    5    0.267766    0.476159    0.839510    11.00000    0.03826    0.03790 =
         0.04979    0.00653   -0.00963   -0.00104
F10   5    0.227748    0.478041    0.701621    11.00000    0.04512    0.04639 =
         0.03585   -0.00850    0.01757   -0.01271
F11   5    0.008691    0.489224    0.738181    11.00000    0.02318    0.04323 =
         0.10687    0.01796   -0.00284   -0.00236
F12   5    0.055182    0.478488    0.874115    11.00000    0.07080    0.04293 =
         0.07381   -0.01049    0.05007   -0.01180
C37   1    0.422013    0.691336    0.763087    11.00000    0.02961    0.03998 =
         0.03849   -0.00621    0.00457   -0.00796
C38   1    0.307305    0.661506    0.764698    11.00000    0.01988    0.04110 =
         0.02655   -0.00115    0.00582   -0.00164
C39   1    0.308678    0.593687    0.776578    11.00000    0.01869    0.03932 =
         0.03872   -0.00514    0.00553    0.00147
C40   1    0.193957    0.564662    0.780056    11.00000    0.02655    0.03542 =
         0.03726    0.00133    0.01051   -0.00064
C41   1    0.195138    0.495909    0.778804    11.00000    0.02458    0.03532 =
         0.02889   -0.00028    0.00646    0.00052
C42   1    0.084970    0.465787    0.793789    11.00000    0.02940    0.03317 =
         0.05113    0.00354    0.01384   -0.00028
mole 4
SADI 0.01 I3A C43A  I3B C43B
SADI 0.02 I3A  F13A I3A  F14A I3B  F13B I3B  F14B
SADI 0.02 F13A F14A F15A F16A F13B F14B F15B F16B
SADI 0.01 C43A F13A C43A F14A C44A F15A C44A F16A C45  F17  C45  F18  =
          C43B F13B C43B F14B C44B F15B C44B F16B
SADI 0.01 C43A C44A C43B C44B C44A C45  C44B C45
SADI 0.02 F17  F18  F19  F20  F21  F22  F23  F24  F13A F14A F15A F16A
SADI 0.01 C46  F17  C46  F18  C45  F19  C45  F20 =
          C43A F15A C43A F16A C44A F13A C44A F14A C44A F17  C44A F18 =
          C43B F15B C43B F16B C44B F13B C44B F14B C44B F17  C44B F18
EADP I3A  I3B
EADP C44A C44B
SIMU 0.01 I3A > C48
part 1
I3A   8    0.883219    0.693547    0.438777    41.00000    0.03299    0.04296 =
         0.02432   -0.00041    0.00188    0.00395
F13A  5    0.859355    0.604535    0.572533    41.00000    0.11776    0.03767 =
         0.04938    0.00020    0.02344    0.01883
F14A  5    0.976126    0.672096    0.610724    41.00000    0.03632    0.11828 =
         0.02455   -0.00089    0.00115    0.03584
F15A  5    0.809389    0.752365    0.618595    41.00000    0.04685    0.03317 =
         0.03787   -0.00072    0.00726    0.00614
F16A  5    0.694648    0.683635    0.576029    41.00000    0.03138    0.05842 =
         0.04221   -0.00571   -0.00264   -0.00710
C43A  1    0.879719    0.663056    0.571018    41.00000    0.03864    0.04137 =
         0.03702    0.00293   -0.00212    0.00891
C44A  1    0.791641    0.694015    0.620413    41.00000    0.03609    0.03740 =
         0.03640   -0.00070   -0.00156   -0.00143
part 2
I3B   8    0.832012    0.694802    0.426695   -41.00000    0.03299    0.04296 =
         0.02432   -0.00041    0.00188    0.00395
F13B  5    0.766939    0.603186    0.545981   -41.00000    0.07293    0.02580 =
         0.02526   -0.00771    0.00337   -0.01620
F14B  5    0.934333    0.633211    0.580301   -41.00000    0.07208    0.07214 =
         0.06883    0.01273   -0.00015    0.01855
F15B  5    0.856573    0.740030    0.620318   -41.00000    0.05906    0.03400 =
         0.04279   -0.00513    0.00205   -0.02108
F16B  5    0.689594    0.707343    0.588914   -41.00000    0.03619    0.05283 =
         0.03206   -0.00364   -0.02085    0.00627
C43B  1    0.835033    0.649681    0.550182   -41.00000    0.05163    0.04436 =
         0.04201    0.00224    0.00136    0.00047
C44B  1    0.790571    0.692509    0.619134   -41.00000    0.03609    0.03740 =
         0.03640   -0.00070   -0.00156   -0.00143
part 0
I4    8    0.921578    0.699368    1.069017    11.00000    0.02488    0.03396 =
         0.02608    0.00231    0.00526    0.00326
F17   5    0.735709    0.620652    0.715180    11.00000    0.06043    0.04869 =
         0.03723    0.00310   -0.00043   -0.02856
F18   5    0.699886    0.712502    0.744127    11.00000    0.03226    0.06545 =
         0.04567   -0.00347    0.00167    0.00607
F19   5    0.935240    0.725380    0.760132    11.00000    0.04483    0.06455 =
         0.03222    0.00456    0.00365   -0.02836
F20   5    0.934774    0.628403    0.769317    11.00000    0.05003    0.06776 =
         0.03881   -0.01039    0.00557    0.02322
F21   5    0.766514    0.646364    0.891613    11.00000    0.03279    0.05241 =
         0.03688    0.00431    0.00970   -0.01298
F22   5    0.817542    0.738500    0.889466    11.00000    0.04991    0.03881 =
         0.03265   -0.00018   -0.00105    0.00976
F23   5    1.036687    0.692668    0.910932    11.00000    0.02600    0.06321 =
         0.03958   -0.00180    0.01342   -0.00299
F24   5    0.959728    0.608810    0.941310    11.00000    0.05013    0.03652 =
         0.04505   -0.00287    0.00891    0.01437
C45   1    0.776455    0.675524    0.715282    11.00000    0.04081    0.04133 =
         0.03377   -0.00227    0.00238   -0.01211
C46   1    0.876216    0.677095    0.779150    11.00000    0.02621    0.03562 =
         0.03362   -0.00182    0.00683   -0.00707
C47   1    0.850423    0.682091    0.876517    11.00000    0.03076    0.02984 =
         0.03015   -0.00208    0.00752   -0.00668
C48   1    0.945265    0.667126    0.940900    11.00000    0.02733    0.03849 =
         0.03359   -0.00131    0.00683   -0.00247
MOLE   5
SADI 0.010     I5   C49A I6A  C54A I5   C49B I6B  C54B
SADI 0.020     I5   F25A I5   F26A I6A  F35A I6A  F36A =
               I5   F25B I5   F26B I6B  F35B I6B  F36B
DFIX 1.34 0.01 C49A F25A C49A F26A C50A F27A C50A F28A C51A F29A C51A F30A =
     C52A F31A C52A F32A C53A F33A C53A F34A C54A F35A C54A F36A =
     C49B F25B C49B F26B C50B F27B C50B F28B C51B F29B C51B F30B C52B F31B =
     C52B F32B C53B F33B C53B F34B C54B F35B C54B F36B
DFIX 1.54 0.01 C49A C50A C50A C51A C51A C52A C52A C53A C53A C54A =
               C49B C50B C50B C51B C51B C52B C52B C53B C53B C54B
SADI 0.02 F25A F26A F27A F28A F29A F30A F31A F32A F33A F34A F35A F36A =
          F25B F26B F27B F28B F29B F30B F31B F32B F33B F34B F35B F36B
SADI 0.02 C49A C51A C50A C52A C51A C53A C52A C54A =
          C49B C51B C50B C52B C51B C53B C52B C54B
SIMU 0.02 I6A > C54B
EADP F25A F25B
EADP F28A F28B
EADP F32A F32B
EADP C49A C49B
EADP C50A C50B
EADP C51A C51B
I5    8    0.579952    0.458743    0.477568    11.00000    0.02650    0.03647 =
         0.03136   -0.00643    0.00944   -0.00383
part 1
I6A   8    0.621980    0.466087    1.112086    31.00000    0.02999    0.03105 =
         0.02366    0.00256    0.00051    0.00065
F25A  5    0.560217    0.547683    0.610610    31.00000    0.05386    0.02184 =
         0.03733   -0.00151   -0.00138    0.00857
F26A  5    0.464300    0.470413    0.636564    31.00000    0.01905    0.04757 =
         0.03238   -0.00607    0.00909   -0.00252
F27A  5    0.665067    0.409560    0.664664    31.00000    0.06704    0.03623 =
         0.04002   -0.00837   -0.00845    0.01274
F28A  5    0.744975    0.495652    0.657794    31.00000    0.02274    0.05790 =
         0.03252   -0.00309    0.01045   -0.00166
F29A  5    0.588796    0.532223    0.781616    31.00000    0.02755    0.02921 =
         0.02615   -0.00166    0.00191    0.01012
F30A  5    0.552629    0.438431    0.793567    31.00000    0.03899    0.04945 =
         0.03689    0.00948   -0.00318   -0.02357
F31A  5    0.789402    0.425371    0.806432    31.00000    0.03934    0.05330 =
         0.03754   -0.00643    0.00192    0.02048
F32A  5    0.788884    0.520059    0.833376    31.00000    0.01792    0.05753 =
         0.03506    0.00304    0.00072   -0.01271
F33A  5    0.807054    0.453746    0.970889    31.00000    0.03173    0.07808 =
         0.04294    0.00399   -0.00739    0.01690
F34A  5    0.664696    0.400712    0.932696    31.00000    0.08277    0.02771 =
         0.02759    0.00198   -0.00185    0.00035
F35A  5    0.535357    0.498717    0.942719    31.00000    0.03800    0.09030 =
         0.03589    0.01131    0.00549    0.02894
F36A  5    0.678121    0.550509    0.979029    31.00000    0.10363    0.02474 =
         0.04595   -0.00119    0.02510   -0.00374
C49A  1    0.561785    0.488004    0.609167    31.00000    0.02376    0.02814 =
         0.03483   -0.00099    0.00782    0.00390
C50A  1    0.651817    0.467798    0.675669    31.00000    0.02379    0.02855 =
         0.03016   -0.00131    0.00957    0.00246
C51A  1    0.628512    0.477210    0.772304    31.00000    0.01761    0.02864 =
         0.02595    0.00044    0.00168   -0.00115
C52A  1    0.728365    0.470290    0.835407    31.00000    0.01563    0.03991 =
         0.02180   -0.00378   -0.00613   -0.00714
C53A  1    0.707210    0.455005    0.930731    31.00000    0.02685    0.03123 =
         0.02512   -0.00189   -0.00470    0.00662
C54A  1    0.634906    0.495592    0.981299    31.00000    0.02305    0.03973 =
         0.02318    0.00020    0.01013    0.00545
part 2
I6B   8    0.664019    0.452027    1.119549   -31.00000    0.03471    0.03583 =
         0.02419    0.00224   -0.00241   -0.00095
F25B  5    0.554082    0.558117    0.594226   -31.00000    0.05386    0.02184 =
         0.03733   -0.00151   -0.00138    0.00857
F26B  5    0.435882    0.488482    0.611878   -31.00000    0.01746    0.06365 =
         0.04409   -0.02213   -0.00090    0.01098
F27B  5    0.602529    0.413153    0.664841   -31.00000    0.06555    0.02597 =
         0.03225   -0.00026    0.00388    0.00302
F28B  5    0.717343    0.485200    0.656084   -31.00000    0.02274    0.05790 =
         0.03252   -0.00309    0.01045   -0.00166
F29B  5    0.575338    0.550514    0.763048   -31.00000    0.02753    0.02024 =
         0.03327   -0.00027    0.00069    0.00511
F30B  5    0.493592    0.466141    0.780710   -31.00000    0.02721    0.04531 =
         0.02567   -0.00347    0.00734   -0.00838
F31B  5    0.711632    0.419047    0.812208   -31.00000    0.06331    0.04307 =
         0.03560   -0.00137   -0.00112    0.02958
F32B  5    0.758875    0.511668    0.827092   -31.00000    0.01792    0.05753 =
         0.03506    0.00304    0.00072   -0.01271
F33B  5    0.573885    0.522172    0.936037   -31.00000    0.03850    0.04068 =
         0.02787   -0.00366    0.00026    0.00956
F34B  5    0.570685    0.426424    0.931199   -31.00000    0.05448    0.03986 =
         0.02930    0.00175   -0.00297   -0.02138
F35B  5    0.795994    0.429104    0.973459   -31.00000    0.03984    0.12018 =
         0.02820    0.00852    0.00760    0.03569
F36B  5    0.777405    0.524156    0.997734   -31.00000    0.07533    0.09460 =
         0.03893    0.01538   -0.01458   -0.06597
C49B  1    0.540697    0.499327    0.597096   -31.00000    0.02376    0.02814 =
         0.03483   -0.00099    0.00782    0.00390
C50B  1    0.612742    0.471872    0.668667   -31.00000    0.02379    0.02855 =
         0.03016   -0.00131    0.00957    0.00246
C51B  1    0.588013    0.491894    0.761373   -31.00000    0.01761    0.02864 =
         0.02595    0.00044    0.00168   -0.00115
C52B  1    0.675349    0.473368    0.830295   -31.00000    0.02161    0.02524 =
         0.03308    0.00260   -0.00746   -0.00156
C53B  1    0.636646    0.474131    0.923988   -31.00000    0.01961    0.01724 =
         0.03511    0.00264   -0.00278   -0.00053
C54B  1    0.726271    0.471564    0.995332   -31.00000    0.03619    0.04938 =
         0.03319   -0.00089    0.00277   -0.00062
HKLF 4
 
REM  vkb08 in P2(1)
REM R1 =  0.0383 for  23461 Fo > 4sig(Fo)  and  0.0524 for all  28274 data
REM   1268 parameters refined using   1434 restraints
 
END  
     
WGHT      0.0394      1.7519 
REM Highest difference peak  1.881,  deepest hole -0.530,  1-sigma level  0.108
Q1    1   0.9160  0.6990  1.0126  11.00000  0.05    1.88
Q2    1   0.5807  0.4597  0.4202  11.00000  0.05    1.60
Q3    1   0.4037  0.7877  0.6838  11.00000  0.05    1.39
Q4    1   0.8830  0.6980  0.3809  11.00000  0.05    1.29
Q5    1   0.0914  0.3700  0.7101  11.00000  0.05    1.18
Q6    1   0.0965  0.3782  0.8279  11.00000  0.05    1.17
Q7    1   0.4133  0.7848  0.8015  11.00000  0.05    1.16
Q8    1   0.6243  0.4642  1.0524  11.00000  0.05    1.12
Q9    1   0.1136  0.3893  0.8124  11.00000  0.05    1.12
Q10   1   0.5987  0.4632  0.5295  11.00000  0.05    1.10
Q11   1   0.8752  0.6712  0.4744  11.00000  0.05    1.10
Q12   1   0.4198  0.7581  0.7760  11.00000  0.05    1.05
Q13   1   0.1364  0.2251  0.7412  11.00000  0.05    0.92
Q14   1   0.9205  0.7006  1.1236  11.00000  0.05    0.91
Q15   1   0.0974  0.2374  0.7907  11.00000  0.05    0.85
Q16   1   0.8483  0.6797  0.3981  11.00000  0.05    0.82
Q17   1   0.0656  0.2317  0.7473  11.00000  0.05    0.82
Q18   1   0.0884  0.2482  0.7248  11.00000  0.05    0.81
Q19   1   0.4094  0.9173  0.7546  11.00000  0.05    0.79
Q20   1   0.6324  0.4728  1.1637  11.00000  0.05    0.76
Q21   1   0.3666  0.9252  0.7062  11.00000  0.05    0.76
Q22   1   0.9143  0.7000  0.4845  11.00000  0.05    0.73
Q23   1   0.4361  0.8129  0.7799  11.00000  0.05    0.73
Q24   1   0.0811  0.2222  0.7648  11.00000  0.05    0.71
Q25   1   0.4002  0.9126  0.6738  11.00000  0.05    0.69
Q26   1   0.0589  0.3763  0.1440  11.00000  0.05    0.66
Q27   1   0.7369  0.1990  0.6060  11.00000  0.05    0.65
Q28   1   0.4208  0.9301  0.6961  11.00000  0.05    0.65
Q29   1   0.6583  0.4877  1.1451  11.00000  0.05    0.64
Q30   1   0.3915  0.9432  0.7227  11.00000  0.05    0.64
Q31   1   0.5826  0.4636  0.5686  11.00000  0.05    0.62
Q32   1   0.4303  0.9223  0.7118  11.00000  0.05    0.62
Q33   1   0.9428  0.7276  1.1011  11.00000  0.05    0.62
Q34   1   0.0827  0.2227  0.7096  11.00000  0.05    0.62
Q35   1   0.9972  0.6927  0.7675  11.00000  0.05    0.60
Q36   1   0.9336  0.6370  0.6141  11.00000  0.05    0.59
Q37   1   0.0808  0.3395  0.7628  11.00000  0.05    0.59
Q38   1   0.8824  0.6974  0.5330  11.00000  0.05    0.58
Q39   1   0.8551  0.6757  0.6222  11.00000  0.05    0.58
Q40   1   0.1005  0.3396  0.7848  11.00000  0.05    0.58
;

_refine_special_details          
; 
 Refinement of F^2^ against ALL reflections.  The weighted R-factor wR and 
 goodness of fit S are based on F^2^, conventional R-factors R are based 
 on F, with F set to zero for negative F^2^. The threshold expression of 
 F^2^ > 2sigma(F^2^) is used only for calculating R-factors(gt) etc. and is 
 not relevant to the choice of reflections for refinement.  R-factors based 
 on F^2^ are statistically about twice as large as those based on F, and R- 
 factors based on ALL data will be even larger. 
;

_refine_ls_structure_factor_coef Fsqd
_refine_ls_matrix_type           full
_refine_ls_weighting_scheme      calc
_refine_ls_weighting_details     
'w=1/[\s^2^(Fo^2^)+(0.0394P)^2^+1.7387P] where P=(Fo^2^+2Fc^2^)/3'
_atom_sites_solution_primary     direct
_atom_sites_solution_secondary   difmap
_atom_sites_solution_hydrogens   geom
_refine_ls_hydrogen_treatment    noref
_refine_ls_extinction_method     none
_refine_ls_extinction_coef       ?
_refine_ls_abs_structure_details 'Flack H D (1983), Acta Cryst. A39, 876-881'
_refine_ls_abs_structure_Flack   0.453(9)
_refine_ls_number_reflns         28274
_refine_ls_number_parameters     1268
_refine_ls_number_restraints     1434
_refine_ls_R_factor_all          0.0524
_refine_ls_R_factor_gt           0.0383
_refine_ls_wR_factor_ref         0.0863
_refine_ls_wR_factor_gt          0.0804
_refine_ls_goodness_of_fit_ref   1.010
_refine_ls_restrained_S_all      1.015
_refine_ls_shift/su_max          0.003
_refine_ls_shift/su_mean         0.000

loop_
_atom_site_label
_atom_site_type_symbol
_atom_site_fract_x
_atom_site_fract_y
_atom_site_fract_z
_atom_site_U_iso_or_equiv
_atom_site_adp_type
_atom_site_occupancy
_atom_site_symmetry_multiplicity
_atom_site_calc_flag
_atom_site_refinement_flags
_atom_site_disorder_assembly
_atom_site_disorder_group
Cl1 Cl 0.09657(8) 0.23771(5) 0.74474(6) 0.0289(2) Uani 1 1 d . . .
Cl2 Cl 0.40409(8) 0.91711(5) 0.70614(6) 0.0280(2) Uani 1 1 d . . .
Na1 Na 0.07784(13) 0.44121(7) 0.27222(12) 0.0324(4) Uani 1 1 d . . .
O1 O -0.0225(2) 0.34932(14) 0.2945(2) 0.0385(7) Uani 1 1 d . . .
O2 O -0.0240(3) 0.40375(16) 0.1363(2) 0.0448(8) Uani 1 1 d . . .
O3 O 0.2334(2) 0.37783(15) 0.3027(2) 0.0416(8) Uani 1 1 d . . .
O4 O 0.1912(2) 0.46630(15) 0.4190(2) 0.0386(7) Uani 1 1 d . . .
O5 O -0.0624(3) 0.51856(15) 0.2604(2) 0.0431(8) Uani 1 1 d . . .
O6 O 0.1530(3) 0.53565(15) 0.2282(2) 0.0479(9) Uani 1 1 d . . .
N1 N 0.2071(3) 0.43191(19) 0.1313(3) 0.0445(10) Uani 1 1 d . . .
N2 N -0.0431(3) 0.44676(16) 0.4173(2) 0.0330(8) Uani 1 1 d . . .
C1 C -0.1140(4) 0.3939(2) 0.4142(4) 0.0391(10) Uani 1 1 d . . .
H1A H -0.1793 0.4017 0.3763 0.047 Uiso 1 1 calc R . .
H1B H -0.1381 0.3851 0.4727 0.047 Uiso 1 1 calc R . .
C2 C -0.0531(4) 0.3410(2) 0.3803(3) 0.0399(11) Uani 1 1 d . . .
H2A H 0.0129 0.3339 0.4179 0.048 Uiso 1 1 calc R . .
H2B H -0.0998 0.3055 0.3829 0.048 Uiso 1 1 calc R . .
C3 C -0.1067(4) 0.3382(2) 0.2301(4) 0.0454(12) Uani 1 1 d . . .
H3A H -0.1670 0.3666 0.2362 0.054 Uiso 1 1 calc R . .
H3B H -0.1356 0.2978 0.2370 0.054 Uiso 1 1 calc R . .
C4 C -0.0613(4) 0.3446(2) 0.1434(4) 0.0469(12) Uani 1 1 d . . .
H4A H -0.0004 0.3166 0.1371 0.056 Uiso 1 1 calc R . .
H4B H -0.1181 0.3361 0.0977 0.056 Uiso 1 1 calc R . .
C5 C 0.0270(4) 0.4158(3) 0.0568(3) 0.0505(13) Uani 1 1 d . . .
H5A H 0.0203 0.4584 0.0433 0.061 Uiso 1 1 calc R . .
H5B H -0.0108 0.3934 0.0095 0.061 Uiso 1 1 calc R . .
C6 C 0.1487(4) 0.3983(3) 0.0629(4) 0.0544(14) Uani 1 1 d . . .
H6A H 0.1556 0.3555 0.0751 0.065 Uiso 1 1 calc R . .
H6B H 0.1815 0.4062 0.0071 0.065 Uiso 1 1 calc R . .
C7 C 0.3064(4) 0.3986(3) 0.1632(4) 0.0486(13) Uani 1 1 d . . .
H7A H 0.3400 0.3790 0.1141 0.058 Uiso 1 1 calc R . .
H7B H 0.3602 0.4264 0.1899 0.058 Uiso 1 1 calc R . .
C8 C 0.2763(4) 0.3534(2) 0.2278(4) 0.0484(13) Uani 1 1 d . . .
H8A H 0.2218 0.3262 0.2005 0.058 Uiso 1 1 calc R . .
H8B H 0.3416 0.3298 0.2447 0.058 Uiso 1 1 calc R . .
C9 C 0.3147(4) 0.3969(2) 0.3650(3) 0.0414(11) Uani 1 1 d . . .
H9A H 0.3572 0.4299 0.3417 0.050 Uiso 1 1 calc R . .
H9B H 0.3651 0.3641 0.3803 0.050 Uiso 1 1 calc R . .
C10 C 0.2578(4) 0.4169(2) 0.4430(3) 0.0449(12) Uani 1 1 d . . .
H10A H 0.2124 0.3845 0.4644 0.054 Uiso 1 1 calc R . .
H10B H 0.3117 0.4282 0.4894 0.054 Uiso 1 1 calc R . .
C11 C 0.1266(4) 0.4860(3) 0.4856(3) 0.0457(12) Uani 1 1 d . . .
H11A H 0.1035 0.5271 0.4733 0.055 Uiso 1 1 calc R . .
H11B H 0.1711 0.4861 0.5404 0.055 Uiso 1 1 calc R . .
C12 C 0.0271(4) 0.4485(3) 0.4965(3) 0.0456(11) Uani 1 1 d . . .
H12A H 0.0499 0.4078 0.5122 0.055 Uiso 1 1 calc R . .
H12B H -0.0145 0.4645 0.5441 0.055 Uiso 1 1 calc R . .
C13 C -0.1092(4) 0.5012(2) 0.4090(3) 0.0406(11) Uani 1 1 d . . .
H13A H -0.0651 0.5353 0.4302 0.049 Uiso 1 1 calc R . .
H13B H -0.1727 0.4977 0.4455 0.049 Uiso 1 1 calc R . .
C14 C -0.1484(4) 0.5123(2) 0.3172(4) 0.0438(12) Uani 1 1 d . . .
H14A H -0.1954 0.4790 0.2974 0.053 Uiso 1 1 calc R . .
H14B H -0.1931 0.5486 0.3149 0.053 Uiso 1 1 calc R . .
C15 C -0.0185(4) 0.5757(2) 0.2587(4) 0.0480(13) Uani 1 1 d . . .
H15A H 0.0118 0.5868 0.3167 0.058 Uiso 1 1 calc R . .
H15B H -0.0757 0.6046 0.2410 0.058 Uiso 1 1 calc R . .
C16 C 0.0706(4) 0.5757(2) 0.1946(4) 0.0529(14) Uani 1 1 d . . .
H16A H 0.0416 0.5622 0.1374 0.064 Uiso 1 1 calc R . .
H16B H 0.1010 0.6158 0.1886 0.064 Uiso 1 1 calc R . .
C17 C 0.2479(4) 0.5329(3) 0.1776(4) 0.0558(15) Uani 1 1 d . . .
H17A H 0.3110 0.5199 0.2148 0.067 Uiso 1 1 calc R . .
H17B H 0.2640 0.5728 0.1557 0.067 Uiso 1 1 calc R . .
C18 C 0.2333(5) 0.4918(3) 0.1038(4) 0.0545(14) Uani 1 1 d . . .
H18A H 0.1741 0.5065 0.0641 0.065 Uiso 1 1 calc R . .
H18B H 0.3009 0.4908 0.0719 0.065 Uiso 1 1 calc R . .
Na2 Na 0.57633(13) 0.21852(7) 0.72141(12) 0.0318(4) Uani 1 1 d . B .
O7 O 0.4759(3) 0.25107(19) 0.5842(2) 0.0552(10) Uani 1 1 d DU . .
O8 O 0.4635(3) 0.30709(15) 0.7378(3) 0.0463(8) Uani 1 1 d U . .
O9 O 0.6905(2) 0.20317(17) 0.8664(2) 0.0441(8) Uani 1 1 d U . .
O10 O 0.7404(3) 0.28283(19) 0.7407(2) 0.0547(9) Uani 1 1 d DU . .
O11 O 0.6463(4) 0.12176(17) 0.6794(3) 0.0688(12) Uani 1 1 d DU . .
O12 O 0.4297(3) 0.13825(15) 0.7188(3) 0.0508(9) Uani 1 1 d U . .
N3 N 0.4531(3) 0.21493(18) 0.8696(3) 0.0401(9) Uani 1 1 d U . .
N4 N 0.7028(3) 0.22189(15) 0.5808(3) 0.0441(9) Uani 1 1 d DU . .
C21 C 0.4211(5) 0.3041(3) 0.5874(4) 0.0632(16) Uani 1 1 d U B .
H21A H 0.3606 0.3049 0.5430 0.076 Uiso 1 1 calc R . .
H21B H 0.4710 0.3372 0.5760 0.076 Uiso 1 1 calc R . .
C22 C 0.3782(4) 0.3104(3) 0.6740(4) 0.0566(15) Uani 1 1 d U B .
H22A H 0.3406 0.3489 0.6783 0.068 Uiso 1 1 calc R . .
H22B H 0.3247 0.2788 0.6835 0.068 Uiso 1 1 calc R . .
C23 C 0.4349(4) 0.3185(2) 0.8232(4) 0.0464(12) Uani 1 1 d U B .
H23A H 0.3854 0.3530 0.8231 0.056 Uiso 1 1 calc R . .
H23B H 0.5014 0.3290 0.8583 0.056 Uiso 1 1 calc R . .
C24 C 0.3801(4) 0.2666(2) 0.8646(4) 0.0420(11) Uani 1 1 d U B .
H24A H 0.3596 0.2776 0.9232 0.050 Uiso 1 1 calc R . .
H24B H 0.3128 0.2563 0.8304 0.050 Uiso 1 1 calc R . .
C25 C 0.5249(4) 0.2187(3) 0.9468(3) 0.0478(12) Uani 1 1 d U B .
H25A H 0.4865 0.2039 0.9969 0.057 Uiso 1 1 calc R . .
H25B H 0.5445 0.2605 0.9579 0.057 Uiso 1 1 calc R . .
C26 C 0.6296(4) 0.1822(3) 0.9365(3) 0.0512(13) Uani 1 1 d U B .
H26A H 0.6755 0.1844 0.9905 0.061 Uiso 1 1 calc R . .
H26B H 0.6099 0.1403 0.9264 0.061 Uiso 1 1 calc R . .
C27 C 0.7501(4) 0.2561(3) 0.8856(4) 0.0537(14) Uani 1 1 d U B .
H27A H 0.7987 0.2504 0.9376 0.064 Uiso 1 1 calc R . .
H27B H 0.6995 0.2889 0.8967 0.064 Uiso 1 1 calc R . .
C28 C 0.8152(4) 0.2702(3) 0.8098(3) 0.0508(13) Uani 1 1 d U B .
H28A H 0.8628 0.3046 0.8223 0.061 Uiso 1 1 calc R . .
H28B H 0.8613 0.2361 0.7954 0.061 Uiso 1 1 calc R . .
C33 C 0.5624(6) 0.0820(3) 0.6510(5) 0.0668(17) Uani 1 1 d U B .
H33A H 0.5927 0.0419 0.6441 0.080 Uiso 1 1 calc R A 2
H33B H 0.5298 0.0950 0.5947 0.080 Uiso 1 1 calc R A 2
C34 C 0.4779(5) 0.0811(2) 0.7163(4) 0.0554(15) Uani 1 1 d U B .
H34A H 0.4219 0.0511 0.7006 0.067 Uiso 1 1 calc R . .
H34B H 0.5113 0.0708 0.7736 0.067 Uiso 1 1 calc R . .
C35 C 0.3476(4) 0.1443(2) 0.7787(4) 0.0548(15) Uani 1 1 d U B .
H35A H 0.3065 0.1068 0.7811 0.066 Uiso 1 1 calc R . .
H35B H 0.2962 0.1755 0.7583 0.066 Uiso 1 1 calc R . .
C36 C 0.3918(4) 0.1597(2) 0.8679(4) 0.0476(13) Uani 1 1 d U B .
H36A H 0.3306 0.1633 0.9067 0.057 Uiso 1 1 calc R . .
H36B H 0.4396 0.1274 0.8899 0.057 Uiso 1 1 calc R . .
C19A C 0.6427(5) 0.2531(4) 0.5113(5) 0.061(2) Uani 0.695(7) 1 d PDU B 1
H19A H 0.6471 0.2962 0.5216 0.073 Uiso 0.695(7) 1 calc PR B 1
H19B H 0.6758 0.2446 0.4558 0.073 Uiso 0.695(7) 1 calc PR B 1
C20A C 0.5292(6) 0.2346(6) 0.5066(5) 0.073(2) Uani 0.695(7) 1 d PDU B 1
H20A H 0.4911 0.2533 0.4561 0.088 Uiso 0.695(7) 1 calc PR B 1
H20B H 0.5251 0.1913 0.4989 0.088 Uiso 0.695(7) 1 calc PR B 1
C29A C 0.7842(7) 0.3039(4) 0.6625(5) 0.065(2) Uani 0.695(7) 1 d PDU B 1
H29A H 0.8521 0.3262 0.6759 0.078 Uiso 0.695(7) 1 calc PR B 1
H29B H 0.7316 0.3307 0.6323 0.078 Uiso 0.695(7) 1 calc PR B 1
C30A C 0.8065(5) 0.2537(3) 0.6080(5) 0.0460(18) Uani 0.695(7) 1 d PDU B 1
H30A H 0.8563 0.2261 0.6397 0.055 Uiso 0.695(7) 1 calc PR B 1
H30B H 0.8429 0.2675 0.5562 0.055 Uiso 0.695(7) 1 calc PR B 1
C31A C 0.7324(7) 0.1611(3) 0.5588(4) 0.0470(19) Uani 0.695(7) 1 d PDU B 1
H31A H 0.6743 0.1438 0.5203 0.056 Uiso 0.695(7) 1 calc PR B 1
H31B H 0.8003 0.1616 0.5272 0.056 Uiso 0.695(7) 1 calc PR B 1
C32A C 0.7481(5) 0.1241(3) 0.6353(5) 0.0466(18) Uani 0.695(7) 1 d PDU B 1
H32A H 0.7701 0.0839 0.6186 0.056 Uiso 0.695(7) 1 calc PR B 1
H32B H 0.8063 0.1409 0.6742 0.056 Uiso 0.695(7) 1 calc PR B 1
C19B C 0.6254(7) 0.2212(8) 0.5050(4) 0.053(4) Uani 0.305(7) 1 d PDU B 2
H19C H 0.6652 0.2356 0.4553 0.064 Uiso 0.305(7) 1 calc PR B 2
H19D H 0.6067 0.1794 0.4932 0.064 Uiso 0.305(7) 1 calc PR B 2
C20B C 0.5308(7) 0.2515(8) 0.5051(4) 0.073(2) Uani 0.305(7) 1 d PRDU B 2
H20C H 0.4809 0.2351 0.4592 0.088 Uiso 0.305(7) 1 calc PR B 2
H20D H 0.5456 0.2931 0.4897 0.088 Uiso 0.305(7) 1 calc PR B 2
C29B C 0.8121(11) 0.2877(10) 0.6698(7) 0.065(2) Uani 0.305(7) 1 d PDU B 2
H29C H 0.8478 0.3269 0.6715 0.078 Uiso 0.305(7) 1 calc PR B 2
H29D H 0.8695 0.2571 0.6758 0.078 Uiso 0.305(7) 1 calc PR B 2
C30B C 0.7523(13) 0.2803(5) 0.5880(7) 0.050(3) Uani 0.305(7) 1 d PDU B 2
H30C H 0.8022 0.2859 0.5406 0.061 Uiso 0.305(7) 1 calc PR B 2
H30D H 0.6948 0.3108 0.5822 0.061 Uiso 0.305(7) 1 calc PR B 2
C31B C 0.7635(11) 0.1662(4) 0.5823(13) 0.0470(19) Uani 0.305(7) 1 d PDU B 2
H31C H 0.7987 0.1614 0.5268 0.056 Uiso 0.305(7) 1 calc PR B 2
H31D H 0.8215 0.1680 0.6286 0.056 Uiso 0.305(7) 1 calc PR B 2
C32B C 0.6959(14) 0.1155(5) 0.5963(8) 0.050(4) Uani 0.305(7) 1 d PDU B 2
H32C H 0.7404 0.0790 0.5960 0.060 Uiso 0.305(7) 1 calc PR B 2
H32D H 0.6386 0.1124 0.5496 0.060 Uiso 0.305(7) 1 calc PR B 2
I1 I 0.09155(2) 0.371596(12) 0.775764(19) 0.03284(6) Uani 1 1 d . . .
I2 I 0.41033(2) 0.785391(12) 0.744656(18) 0.03159(6) Uani 1 1 d . . .
F1 F 0.4740(2) 0.66702(13) 0.6984(2) 0.0552(9) Uani 1 1 d . . .
F2 F 0.4777(2) 0.67874(14) 0.8359(2) 0.0585(9) Uani 1 1 d . . .
F3 F 0.2527(2) 0.67497(12) 0.69062(18) 0.0429(7) Uani 1 1 d . . .
F4 F 0.2549(2) 0.68540(12) 0.82962(19) 0.0441(7) Uani 1 1 d . . .
F5 F 0.3653(2) 0.58096(13) 0.8495(2) 0.0506(8) Uani 1 1 d . . .
F6 F 0.3581(2) 0.57017(12) 0.7101(2) 0.0476(7) Uani 1 1 d . . .
F7 F 0.1329(2) 0.58262(13) 0.7115(2) 0.0500(8) Uani 1 1 d . . .
F8 F 0.1490(2) 0.58251(12) 0.8516(2) 0.0496(7) Uani 1 1 d . . .
F9 F 0.2678(2) 0.47616(12) 0.83951(18) 0.0424(6) Uani 1 1 d . . .
F10 F 0.2277(2) 0.47804(12) 0.70162(17) 0.0419(6) Uani 1 1 d . . .
F11 F 0.0087(2) 0.48922(13) 0.7382(3) 0.0580(9) Uani 1 1 d . . .
F12 F 0.0552(3) 0.47849(13) 0.8741(2) 0.0610(9) Uani 1 1 d . . .
C37 C 0.4220(3) 0.6913(2) 0.7631(3) 0.0359(10) Uani 1 1 d . . .
C38 C 0.3073(3) 0.66151(19) 0.7647(3) 0.0290(8) Uani 1 1 d . . .
C39 C 0.3087(3) 0.5937(2) 0.7766(3) 0.0321(9) Uani 1 1 d . . .
C40 C 0.1940(3) 0.56466(19) 0.7801(3) 0.0328(9) Uani 1 1 d . . .
C41 C 0.1951(3) 0.49591(19) 0.7788(3) 0.0294(8) Uani 1 1 d . . .
C42 C 0.0850(3) 0.4658(2) 0.7938(3) 0.0375(10) Uani 1 1 d . . .
I3A I 0.88322(4) 0.693547(15) 0.43878(2) 0.03341(9) Uani 0.8975(12) 1 d PDU C 1
F13A F 0.8594(4) 0.60454(14) 0.5725(2) 0.0676(11) Uani 0.8975(12) 1 d PDU C 1
F14A F 0.9761(2) 0.67210(19) 0.61072(19) 0.0597(11) Uani 0.8975(12) 1 d PDU C 1
F15A F 0.8094(3) 0.75236(13) 0.6186(2) 0.0391(7) Uani 0.8975(12) 1 d PDU C 1
F16A F 0.6946(2) 0.68364(17) 0.5760(3) 0.0441(8) Uani 0.8975(12) 1 d PDU C 1
C43A C 0.8797(3) 0.66306(19) 0.5710(3) 0.0391(11) Uani 0.8975(12) 1 d PDU C 1
C44A C 0.7916(3) 0.69402(18) 0.6204(2) 0.0367(9) Uani 0.8975(12) 1 d PDU C 1
I3B I 0.8320(4) 0.69480(15) 0.42670(19) 0.03341(9) Uani 0.1025(12) 1 d PDU C 2
F13B F 0.767(2) 0.6032(6) 0.5460(10) 0.041(5) Uani 0.1025(12) 1 d PDU C 2
F14B F 0.9343(16) 0.6332(11) 0.5803(11) 0.071(5) Uani 0.1025(12) 1 d PDU C 2
F15B F 0.8566(19) 0.7400(8) 0.6203(18) 0.045(5) Uani 0.1025(12) 1 d PDU C 2
F16B F 0.6896(14) 0.7073(12) 0.5889(19) 0.041(5) Uani 0.1025(12) 1 d PDU C 2
C43B C 0.8350(13) 0.6497(5) 0.5502(7) 0.046(3) Uani 0.1025(12) 1 d PDU C 2
C44B C 0.7906(13) 0.6925(4) 0.6191(5) 0.0367(9) Uani 0.1025(12) 1 d PDU C 2
I4 I 0.92158(2) 0.699368(12) 1.069017(16) 0.02818(5) Uani 1 1 d . . .
F17 F 0.7357(2) 0.62065(12) 0.71518(17) 0.0489(7) Uani 1 1 d DU C .
F18 F 0.6999(2) 0.71250(13) 0.74413(18) 0.0478(7) Uani 1 1 d DU C .
F19 F 0.9352(2) 0.72538(14) 0.76013(17) 0.0471(7) Uani 1 1 d DU . .
F20 F 0.9348(2) 0.62840(14) 0.76932(18) 0.0521(8) Uani 1 1 d DU . .
F21 F 0.7665(2) 0.64636(13) 0.89161(17) 0.0404(6) Uani 1 1 d DU C .
F22 F 0.8175(2) 0.73850(12) 0.88947(17) 0.0406(6) Uani 1 1 d DU C .
F23 F 1.0367(2) 0.69267(14) 0.91093(17) 0.0425(6) Uani 1 1 d DU . .
F24 F 0.9597(2) 0.60881(12) 0.94131(18) 0.0437(6) Uani 1 1 d DU . .
C45 C 0.7765(3) 0.67552(16) 0.7153(3) 0.0386(10) Uani 1 1 d DU . .
C46 C 0.8762(3) 0.67710(18) 0.7792(3) 0.0316(8) Uani 1 1 d DU C .
C47 C 0.8504(3) 0.68209(18) 0.8765(3) 0.0301(8) Uani 1 1 d U . .
C48 C 0.9453(3) 0.6671(2) 0.9409(3) 0.0330(9) Uani 1 1 d U C .
I5 I 0.57995(2) 0.458743(12) 0.477568(17) 0.03118(6) Uani 1 1 d D . .
I6A I 0.62198(11) 0.46609(4) 1.11209(5) 0.0283(2) Uani 0.547(3) 1 d PDU D 1
F25A F 0.5602(12) 0.5477(3) 0.6106(7) 0.0378(19) Uani 0.547(3) 1 d PDU D 1
F26A F 0.4643(4) 0.4704(3) 0.6366(4) 0.0327(13) Uani 0.547(3) 1 d PDU D 1
F27A F 0.6651(6) 0.4096(3) 0.6647(4) 0.0481(16) Uani 0.547(3) 1 d PDU D 1
F28A F 0.7450(7) 0.4957(6) 0.6578(12) 0.0374(15) Uani 0.547(3) 1 d PDU D 1
F29A F 0.5888(6) 0.5322(3) 0.7816(5) 0.0276(13) Uani 0.547(3) 1 d PDU D 1
F30A F 0.5526(4) 0.4384(2) 0.7936(3) 0.0419(13) Uani 0.547(3) 1 d PDU D 1
F31A F 0.7894(5) 0.4254(2) 0.8064(3) 0.0434(13) Uani 0.547(3) 1 d PDU D 1
F32A F 0.7889(6) 0.5201(4) 0.8334(9) 0.0369(12) Uani 0.547(3) 1 d PDU D 1
F33A F 0.8071(7) 0.4537(4) 0.9709(8) 0.051(2) Uani 0.547(3) 1 d PDU D 1
F34A F 0.6647(5) 0.4007(2) 0.9327(3) 0.0462(14) Uani 0.547(3) 1 d PDU D 1
F35A F 0.5354(5) 0.4987(4) 0.9427(4) 0.055(2) Uani 0.547(3) 1 d PDU D 1
F36A F 0.6781(6) 0.5505(2) 0.9790(4) 0.0574(17) Uani 0.547(3) 1 d PDU D 1
C49A C 0.5618(6) 0.4880(4) 0.6092(4) 0.0287(16) Uani 0.547(3) 1 d PDU D 1
C50A C 0.6518(6) 0.4678(3) 0.6757(4) 0.0272(14) Uani 0.547(3) 1 d PDU D 1
C51A C 0.6285(5) 0.4772(3) 0.7723(4) 0.0240(12) Uani 0.547(3) 1 d PDU D 1
C52A C 0.7284(5) 0.4703(3) 0.8354(4) 0.0260(15) Uani 0.547(3) 1 d PDU D 1
C53A C 0.7072(5) 0.4550(3) 0.9307(4) 0.0279(14) Uani 0.547(3) 1 d PDU D 1
C54A C 0.6349(5) 0.4956(3) 0.9813(4) 0.0284(15) Uani 0.547(3) 1 d PDU D 1
I6B I 0.66402(15) 0.45203(6) 1.11955(5) 0.0317(3) Uani 0.453(3) 1 d PDU D 2
F25B F 0.5541(15) 0.5581(4) 0.5942(9) 0.0378(19) Uani 0.453(3) 1 d PDU D 2
F26B F 0.4359(5) 0.4885(4) 0.6119(5) 0.042(2) Uani 0.453(3) 1 d PDU D 2
F27B F 0.6025(7) 0.4132(3) 0.6648(5) 0.0412(17) Uani 0.453(3) 1 d PDU D 2
F28B F 0.7173(9) 0.4852(7) 0.6561(15) 0.0374(15) Uani 0.453(3) 1 d PDU D 2
F29B F 0.5753(7) 0.5505(3) 0.7630(6) 0.0270(16) Uani 0.453(3) 1 d PDU D 2
F30B F 0.4936(4) 0.4661(3) 0.7807(3) 0.0325(12) Uani 0.453(3) 1 d PDU D 2
F31B F 0.7116(7) 0.4190(3) 0.8122(4) 0.0474(17) Uani 0.453(3) 1 d PDU D 2
F32B F 0.7589(7) 0.5117(5) 0.8271(11) 0.0369(12) Uani 0.453(3) 1 d PDU D 2
F33B F 0.5739(6) 0.5222(3) 0.9360(5) 0.0357(16) Uani 0.453(3) 1 d PDU D 2
F34B F 0.5707(5) 0.4264(2) 0.9312(4) 0.0414(15) Uani 0.453(3) 1 d PDU D 2
F35B F 0.7960(9) 0.4291(5) 0.9735(8) 0.063(4) Uani 0.453(3) 1 d PDU D 2
F36B F 0.7774(7) 0.5242(3) 0.9977(4) 0.070(3) Uani 0.453(3) 1 d PDU D 2
C49B C 0.5407(7) 0.4993(4) 0.5971(5) 0.0287(16) Uani 0.453(3) 1 d PDU D 2
C50B C 0.6127(7) 0.4719(4) 0.6687(5) 0.0272(14) Uani 0.453(3) 1 d PDU D 2
C51B C 0.5880(6) 0.4919(4) 0.7614(4) 0.0240(12) Uani 0.453(3) 1 d PDU D 2
C52B C 0.6753(6) 0.4734(3) 0.8303(4) 0.0269(17) Uani 0.453(3) 1 d PDU D 2
C53B C 0.6366(5) 0.4741(3) 0.9240(4) 0.0241(16) Uani 0.453(3) 1 d PDU D 2
C54B C 0.7263(6) 0.4716(4) 0.9953(4) 0.040(2) Uani 0.453(3) 1 d PDU D 2

loop_
_atom_site_aniso_label
_atom_site_aniso_U_11
_atom_site_aniso_U_22
_atom_site_aniso_U_33
_atom_site_aniso_U_23
_atom_site_aniso_U_13
_atom_site_aniso_U_12
Cl1 0.0352(5) 0.0310(5) 0.0208(4) -0.0013(3) 0.0025(4) -0.0026(4)
Cl2 0.0308(5) 0.0316(5) 0.0217(4) 0.0009(3) 0.0038(4) 0.0021(4)
Na1 0.0233(8) 0.0290(8) 0.0448(10) 0.0080(7) 0.0004(7) 0.0024(6)
O1 0.0216(14) 0.0352(17) 0.059(2) 0.0011(14) 0.0021(14) 0.0005(12)
O2 0.0317(17) 0.053(2) 0.050(2) -0.0015(16) 0.0005(15) 0.0052(15)
O3 0.0218(14) 0.0408(18) 0.061(2) 0.0046(16) -0.0083(14) 0.0004(13)
O4 0.0306(15) 0.0464(19) 0.0387(17) 0.0121(15) -0.0007(13) -0.0015(14)
O5 0.0378(18) 0.0351(18) 0.057(2) 0.0143(15) 0.0076(15) 0.0090(14)
O6 0.0345(17) 0.044(2) 0.066(2) 0.0178(17) 0.0116(16) 0.0075(15)
N1 0.030(2) 0.054(3) 0.050(3) 0.006(2) 0.0034(18) 0.0054(18)
N2 0.0248(16) 0.0338(19) 0.041(2) 0.0098(15) 0.0045(14) 0.0012(14)
C1 0.026(2) 0.036(2) 0.056(3) 0.010(2) 0.010(2) 0.0005(18)
C2 0.034(2) 0.029(2) 0.058(3) 0.007(2) 0.013(2) 0.0000(18)
C3 0.028(2) 0.037(3) 0.071(4) -0.011(2) -0.002(2) -0.0030(18)
C4 0.037(3) 0.050(3) 0.053(3) -0.007(2) -0.003(2) 0.005(2)
C5 0.032(2) 0.078(4) 0.041(3) -0.002(3) -0.001(2) 0.007(2)
C6 0.033(2) 0.082(4) 0.047(3) -0.007(3) -0.001(2) 0.014(3)
C7 0.024(2) 0.061(3) 0.061(3) -0.005(3) -0.001(2) 0.005(2)
C8 0.028(2) 0.041(3) 0.075(4) -0.003(2) -0.011(2) 0.0122(19)
C9 0.024(2) 0.047(3) 0.053(3) 0.016(2) -0.0053(19) 0.0001(18)
C10 0.028(2) 0.064(3) 0.043(3) 0.018(2) -0.0050(19) 0.002(2)
C11 0.038(3) 0.062(3) 0.036(3) -0.003(2) -0.005(2) -0.003(2)
C12 0.047(3) 0.055(3) 0.036(2) 0.002(2) 0.012(2) -0.002(2)
C13 0.027(2) 0.040(2) 0.056(3) 0.001(2) 0.014(2) 0.0013(18)
C14 0.034(2) 0.034(2) 0.064(3) 0.011(2) 0.003(2) 0.0107(19)
C15 0.043(3) 0.037(3) 0.064(4) 0.016(2) 0.008(2) 0.013(2)
C16 0.048(3) 0.046(3) 0.065(4) 0.027(3) 0.006(3) 0.008(2)
C17 0.036(3) 0.051(3) 0.082(4) 0.018(3) 0.014(3) -0.009(2)
C18 0.041(3) 0.075(4) 0.049(3) 0.009(3) 0.015(2) -0.001(3)
Na2 0.0237(8) 0.0316(9) 0.0402(9) -0.0037(7) 0.0028(7) 0.0004(6)
O7 0.0340(18) 0.083(3) 0.049(2) 0.017(2) 0.0083(16) 0.0066(18)
O8 0.0332(17) 0.0397(18) 0.066(2) -0.0034(16) 0.0052(16) 0.0021(14)
O9 0.0283(15) 0.062(2) 0.0420(18) -0.0077(17) 0.0021(13) 0.0025(16)
O10 0.0354(18) 0.070(3) 0.058(2) -0.003(2) -0.0018(16) -0.0210(18)
O11 0.083(3) 0.033(2) 0.095(3) -0.0022(19) 0.044(3) 0.0067(19)
O12 0.051(2) 0.0320(18) 0.068(2) -0.0094(16) -0.0136(18) 0.0061(16)
N3 0.0269(18) 0.042(2) 0.051(2) -0.0039(18) 0.0024(16) -0.0020(15)
N4 0.048(2) 0.047(2) 0.037(2) -0.0035(17) 0.0071(18) 0.0076(18)
C21 0.052(3) 0.065(4) 0.072(4) 0.024(3) -0.001(3) 0.000(3)
C22 0.039(3) 0.048(3) 0.082(4) 0.001(3) -0.006(3) 0.013(2)
C23 0.037(3) 0.035(2) 0.067(3) -0.012(2) 0.008(2) -0.002(2)
C24 0.031(2) 0.037(2) 0.058(3) -0.011(2) 0.013(2) 0.0007(18)
C25 0.035(2) 0.066(3) 0.044(3) -0.011(2) 0.017(2) -0.002(2)
C26 0.036(2) 0.079(4) 0.038(3) 0.005(3) -0.003(2) 0.009(2)
C27 0.030(2) 0.076(4) 0.054(3) -0.025(3) -0.004(2) -0.003(2)
C28 0.023(2) 0.075(4) 0.054(3) -0.020(3) 0.001(2) -0.004(2)
C33 0.084(5) 0.045(3) 0.071(4) -0.021(3) 0.001(3) 0.014(3)
C34 0.045(3) 0.030(3) 0.091(4) -0.006(3) -0.006(3) 0.000(2)
C35 0.027(2) 0.042(3) 0.094(4) -0.011(3) -0.011(3) 0.001(2)
C36 0.028(2) 0.037(3) 0.078(4) 0.003(2) 0.009(2) -0.0024(19)
C19A 0.055(5) 0.072(6) 0.055(5) 0.013(4) 0.005(4) 0.020(4)
C20A 0.052(3) 0.126(6) 0.042(3) 0.001(4) 0.004(3) -0.011(4)
C29A 0.050(4) 0.077(5) 0.067(4) 0.021(4) -0.006(3) -0.024(4)
C30A 0.033(3) 0.056(4) 0.050(4) 0.002(3) 0.011(3) -0.007(3)
C31A 0.035(4) 0.054(3) 0.053(4) 0.002(3) 0.008(3) 0.015(3)
C32A 0.034(4) 0.047(4) 0.059(5) -0.005(3) 0.002(3) 0.008(3)
C19B 0.066(8) 0.063(8) 0.033(6) -0.003(7) 0.016(6) 0.034(7)
C20B 0.052(3) 0.126(6) 0.042(3) 0.001(4) 0.004(3) -0.011(4)
C29B 0.050(4) 0.077(5) 0.067(4) 0.021(4) -0.006(3) -0.024(4)
C30B 0.032(6) 0.058(8) 0.062(7) 0.026(7) 0.010(6) -0.006(6)
C31B 0.035(4) 0.054(3) 0.053(4) 0.002(3) 0.008(3) 0.015(3)
C32B 0.056(8) 0.036(7) 0.058(8) -0.006(6) 0.011(7) 0.021(6)
I1 0.02573(13) 0.03293(14) 0.04025(14) 0.00074(12) 0.00549(10) -0.00266(10)
I2 0.02473(12) 0.03474(14) 0.03569(14) -0.00680(11) 0.00543(10) -0.00487(10)
F1 0.0374(15) 0.0415(16) 0.090(2) -0.0158(16) 0.0378(16) -0.0098(12)
F2 0.0450(17) 0.0521(18) 0.075(2) 0.0095(16) -0.0268(16) -0.0095(14)
F3 0.0385(14) 0.0437(15) 0.0454(16) 0.0134(12) -0.0091(12) -0.0154(12)
F4 0.0455(15) 0.0354(14) 0.0539(16) -0.0054(12) 0.0275(13) 0.0014(11)
F5 0.0480(17) 0.0451(16) 0.0569(19) 0.0125(14) -0.0171(14) -0.0065(13)
F6 0.0364(14) 0.0414(15) 0.068(2) -0.0207(13) 0.0293(14) -0.0097(12)
F7 0.0278(13) 0.0443(16) 0.076(2) 0.0201(14) -0.0115(14) -0.0088(12)
F8 0.0502(17) 0.0399(15) 0.0620(19) -0.0111(13) 0.0352(14) -0.0032(13)
F9 0.0383(14) 0.0379(14) 0.0498(16) 0.0065(12) -0.0096(12) -0.0010(11)
F10 0.0451(15) 0.0464(16) 0.0359(14) -0.0085(11) 0.0176(12) -0.0127(12)
F11 0.0232(13) 0.0432(17) 0.107(3) 0.0180(17) -0.0028(15) -0.0024(12)
F12 0.071(2) 0.0429(16) 0.074(2) -0.0105(15) 0.0501(18) -0.0118(15)
C37 0.030(2) 0.040(3) 0.038(2) -0.0062(19) 0.0046(17) -0.0080(18)
C38 0.0199(18) 0.041(2) 0.0266(19) -0.0011(16) 0.0058(14) -0.0016(16)
C39 0.0187(17) 0.039(2) 0.039(2) -0.0051(18) 0.0055(16) 0.0015(16)
C40 0.027(2) 0.035(2) 0.037(2) 0.0013(17) 0.0105(17) -0.0006(16)
C41 0.0246(19) 0.035(2) 0.029(2) -0.0003(16) 0.0065(16) 0.0005(16)
C42 0.029(2) 0.033(2) 0.051(3) 0.0035(19) 0.0138(19) -0.0003(17)
I3A 0.0330(2) 0.04296(17) 0.02432(14) -0.00041(13) 0.00188(14) 0.00395(15)
F13A 0.118(3) 0.0377(19) 0.049(2) 0.0002(16) 0.023(2) 0.019(2)
F14A 0.0363(16) 0.118(3) 0.0246(15) -0.0009(17) 0.0011(13) 0.0358(19)
F15A 0.0468(18) 0.0332(16) 0.0379(16) -0.0007(12) 0.0073(15) 0.0061(13)
F16A 0.0314(15) 0.058(2) 0.0422(19) -0.0057(17) -0.0026(13) -0.0071(15)
C43A 0.039(3) 0.041(3) 0.037(2) 0.003(2) -0.002(2) 0.009(2)
C44A 0.0361(19) 0.037(2) 0.0364(19) -0.0007(17) -0.0016(16) -0.0014(17)
I3B 0.0330(2) 0.04296(17) 0.02432(14) -0.00041(13) 0.00188(14) 0.00395(15)
F13B 0.073(12) 0.026(9) 0.025(9) -0.008(8) 0.003(9) -0.016(9)
F14B 0.072(10) 0.072(10) 0.069(9) 0.013(9) 0.000(9) 0.019(9)
F15B 0.059(11) 0.034(10) 0.043(10) -0.005(9) 0.002(10) -0.021(9)
F16B 0.036(9) 0.053(11) 0.032(9) -0.004(9) -0.021(8) 0.006(9)
C43B 0.052(6) 0.044(5) 0.042(5) 0.002(5) 0.001(5) 0.000(5)
C44B 0.0361(19) 0.037(2) 0.0364(19) -0.0007(17) -0.0016(16) -0.0014(17)
I4 0.02488(11) 0.03396(13) 0.02608(12) 0.00231(10) 0.00526(9) 0.00326(10)
F17 0.0604(18) 0.0487(17) 0.0372(15) 0.0031(12) -0.0004(13) -0.0286(14)
F18 0.0323(13) 0.065(2) 0.0457(16) -0.0035(14) 0.0017(12) 0.0061(13)
F19 0.0448(15) 0.0646(19) 0.0322(14) 0.0046(12) 0.0037(12) -0.0284(14)
F20 0.0500(17) 0.068(2) 0.0388(15) -0.0104(14) 0.0056(13) 0.0232(15)
F21 0.0328(13) 0.0524(16) 0.0369(14) 0.0043(12) 0.0097(11) -0.0130(12)
F22 0.0499(16) 0.0388(14) 0.0326(14) -0.0002(11) -0.0010(12) 0.0098(12)
F23 0.0260(12) 0.0632(18) 0.0396(14) -0.0018(13) 0.0134(10) -0.0030(13)
F24 0.0501(16) 0.0365(14) 0.0450(16) -0.0029(12) 0.0089(12) 0.0144(12)
C45 0.041(2) 0.041(2) 0.034(2) -0.0023(18) 0.0024(18) -0.0121(19)
C46 0.0262(18) 0.036(2) 0.034(2) -0.0018(16) 0.0068(16) -0.0071(16)
C47 0.0308(19) 0.0298(19) 0.0302(19) -0.0021(15) 0.0075(15) -0.0067(15)
C48 0.027(2) 0.038(2) 0.034(2) -0.0013(17) 0.0068(16) -0.0025(17)
I5 0.02650(12) 0.03647(14) 0.03136(13) -0.00643(11) 0.00944(10) -0.00383(10)
I6A 0.0300(4) 0.0310(3) 0.0237(3) 0.0026(2) 0.0005(3) 0.0007(3)
F25A 0.054(2) 0.022(3) 0.037(4) -0.002(3) -0.001(3) 0.009(3)
F26A 0.019(3) 0.048(4) 0.032(3) -0.006(2) 0.009(2) -0.003(2)
F27A 0.067(4) 0.036(3) 0.040(3) -0.008(2) -0.008(4) 0.013(3)
F28A 0.023(5) 0.058(4) 0.0325(16) -0.003(3) 0.010(4) -0.002(3)
F29A 0.028(3) 0.029(4) 0.026(3) -0.002(2) 0.002(2) 0.010(3)
F30A 0.039(3) 0.049(3) 0.037(3) 0.009(2) -0.003(2) -0.024(3)
F31A 0.039(3) 0.053(3) 0.038(3) -0.006(2) 0.002(2) 0.020(2)
F32A 0.018(4) 0.058(3) 0.035(2) 0.003(2) 0.001(4) -0.013(2)
F33A 0.032(3) 0.078(6) 0.043(4) 0.004(4) -0.007(3) 0.017(4)
F34A 0.083(4) 0.028(2) 0.028(2) 0.0020(19) -0.002(2) 0.000(2)
F35A 0.038(4) 0.090(6) 0.036(3) 0.011(4) 0.005(3) 0.029(3)
F36A 0.104(5) 0.025(3) 0.046(3) -0.001(2) 0.025(3) -0.004(3)
C49A 0.024(3) 0.028(4) 0.035(3) -0.001(3) 0.008(2) 0.004(3)
C50A 0.024(4) 0.029(2) 0.030(2) -0.0013(19) 0.010(3) 0.002(3)
C51A 0.018(3) 0.029(3) 0.026(2) 0.000(2) 0.002(3) -0.001(2)
C52A 0.016(3) 0.040(4) 0.022(3) -0.004(3) -0.006(3) -0.007(3)
C53A 0.027(3) 0.031(3) 0.025(3) -0.002(3) -0.005(3) 0.007(3)
C54A 0.023(3) 0.040(4) 0.023(3) 0.000(3) 0.010(3) 0.005(3)
I6B 0.0347(6) 0.0358(4) 0.0242(3) 0.0022(3) -0.0024(3) -0.0009(4)
F25B 0.054(2) 0.022(3) 0.037(4) -0.002(3) -0.001(3) 0.009(3)
F26B 0.017(3) 0.064(5) 0.044(5) -0.022(4) -0.001(3) 0.011(3)
F27B 0.066(5) 0.026(3) 0.032(3) 0.000(2) 0.004(4) 0.003(3)
F28B 0.023(5) 0.058(4) 0.0325(16) -0.003(3) 0.010(4) -0.002(3)
F29B 0.028(3) 0.020(4) 0.033(4) 0.000(3) 0.001(3) 0.005(3)
F30B 0.027(3) 0.045(3) 0.026(3) -0.003(2) 0.007(2) -0.008(2)
F31B 0.063(5) 0.043(4) 0.036(3) -0.001(3) -0.001(3) 0.030(3)
F32B 0.018(4) 0.058(3) 0.035(2) 0.003(2) 0.001(4) -0.013(2)
F33B 0.038(4) 0.041(4) 0.028(3) -0.004(3) 0.000(3) 0.010(3)
F34B 0.054(4) 0.040(3) 0.029(3) 0.002(2) -0.003(3) -0.021(3)
F35B 0.040(5) 0.120(11) 0.028(4) 0.009(6) 0.008(3) 0.036(6)
F36B 0.075(5) 0.095(6) 0.039(4) 0.015(4) -0.015(3) -0.066(5)
C49B 0.024(3) 0.028(4) 0.035(3) -0.001(3) 0.008(2) 0.004(3)
C50B 0.024(4) 0.029(2) 0.030(2) -0.0013(19) 0.010(3) 0.002(3)
C51B 0.018(3) 0.029(3) 0.026(2) 0.000(2) 0.002(3) -0.001(2)
C52B 0.022(4) 0.025(4) 0.033(4) 0.003(3) -0.007(4) -0.002(4)
C53B 0.020(3) 0.017(3) 0.035(4) 0.003(3) -0.003(3) -0.001(3)
C54B 0.036(5) 0.049(5) 0.033(5) -0.001(4) 0.003(4) -0.001(4)

_geom_special_details            
; 
 All esds (except the esd in the dihedral angle between two l.s. planes) 
 are estimated using the full covariance matrix.  The cell esds are taken 
 into account individually in the estimation of esds in distances, angles 
 and torsion angles; correlations between esds in cell parameters are only 
 used when they are defined by crystal symmetry.  An approximate (isotropic) 
 treatment of cell esds is used for estimating esds involving l.s. planes. 
;

loop_
_geom_bond_atom_site_label_1
_geom_bond_atom_site_label_2
_geom_bond_distance
_geom_bond_site_symmetry_2
_geom_bond_publ_flag
Na1 O3 2.422(3) . ?
Na1 O6 2.442(4) . ?
Na1 O1 2.453(4) . ?
Na1 O5 2.461(4) . ?
Na1 O2 2.549(4) . ?
Na1 O4 2.677(4) . ?
Na1 N2 2.764(4) . ?
Na1 N1 2.778(5) . ?
O1 C2 1.417(6) . ?
O1 C3 1.428(6) . ?
O2 C4 1.423(6) . ?
O2 C5 1.438(6) . ?
O3 C8 1.415(7) . ?
O3 C9 1.426(6) . ?
O4 C11 1.408(6) . ?
O4 C10 1.426(6) . ?
O5 C15 1.403(6) . ?
O5 C14 1.419(6) . ?
O6 C16 1.439(6) . ?
O6 C17 1.442(6) . ?
N1 C18 1.462(7) . ?
N1 C6 1.466(7) . ?
N1 C7 1.501(6) . ?
N2 C12 1.470(6) . ?
N2 C13 1.480(6) . ?
N2 C1 1.482(6) . ?
C1 C2 1.521(7) . ?
C1 H1A 0.9900 . ?
C1 H1B 0.9900 . ?
C2 H2A 0.9900 . ?
C2 H2B 0.9900 . ?
C3 C4 1.491(8) . ?
C3 H3A 0.9900 . ?
C3 H3B 0.9900 . ?
C4 H4A 0.9900 . ?
C4 H4B 0.9900 . ?
C5 C6 1.549(7) . ?
C5 H5A 0.9900 . ?
C5 H5B 0.9900 . ?
C6 H6A 0.9900 . ?
C6 H6B 0.9900 . ?
C7 C8 1.493(8) . ?
C7 H7A 0.9900 . ?
C7 H7B 0.9900 . ?
C8 H8A 0.9900 . ?
C8 H8B 0.9900 . ?
C9 C10 1.498(7) . ?
C9 H9A 0.9900 . ?
C9 H9B 0.9900 . ?
C10 H10A 0.9900 . ?
C10 H10B 0.9900 . ?
C11 C12 1.507(7) . ?
C11 H11A 0.9900 . ?
C11 H11B 0.9900 . ?
C12 H12A 0.9900 . ?
C12 H12B 0.9900 . ?
C13 C14 1.505(7) . ?
C13 H13A 0.9900 . ?
C13 H13B 0.9900 . ?
C14 H14A 0.9900 . ?
C14 H14B 0.9900 . ?
C15 C16 1.518(8) . ?
C15 H15A 0.9900 . ?
C15 H15B 0.9900 . ?
C16 H16A 0.9900 . ?
C16 H16B 0.9900 . ?
C17 C18 1.480(9) . ?
C17 H17A 0.9900 . ?
C17 H17B 0.9900 . ?
C18 H18A 0.9900 . ?
C18 H18B 0.9900 . ?
Na2 O11 2.455(4) . ?
Na2 O8 2.461(4) . ?
Na2 O10 2.497(4) . ?
Na2 O7 2.523(4) . ?
Na2 O12 2.561(4) . ?
Na2 O9 2.620(4) . ?
Na2 N4 2.746(4) . ?
Na2 N3 2.821(4) . ?
O7 C21 1.381(7) . ?
O7 C20B 1.432(7) . ?
O7 C20A 1.449(7) . ?
O8 C22 1.411(7) . ?
O8 C23 1.413(7) . ?
O9 C27 1.430(7) . ?
O9 C26 1.434(6) . ?
O10 C28 1.410(6) . ?
O10 C29A 1.435(7) . ?
O10 C29B 1.451(8) . ?
O11 C33 1.424(8) . ?
O11 C32A 1.459(6) . ?
O11 C32B 1.462(8) . ?
O12 C35 1.414(7) . ?
O12 C34 1.426(6) . ?
N3 C25 1.458(7) . ?
N3 C36 1.460(6) . ?
N3 C24 1.475(6) . ?
N4 C30B 1.459(8) . ?
N4 C19A 1.461(6) . ?
N4 C31B 1.465(8) . ?
N4 C31A 1.469(6) . ?
N4 C19B 1.478(7) . ?
N4 C30A 1.508(6) . ?
C21 C22 1.477(9) . ?
C21 H21A 0.9900 . ?
C21 H21B 0.9900 . ?
C22 H22A 0.9900 . ?
C22 H22B 0.9900 . ?
C23 C24 1.516(7) . ?
C23 H23A 0.9900 . ?
C23 H23B 0.9900 . ?
C24 H24A 0.9900 . ?
C24 H24B 0.9900 . ?
C25 C26 1.546(7) . ?
C25 H25A 0.9900 . ?
C25 H25B 0.9900 . ?
C26 H26A 0.9900 . ?
C26 H26B 0.9900 . ?
C27 C28 1.492(8) . ?
C27 H27A 0.9900 . ?
C27 H27B 0.9900 . ?
C28 H28A 0.9900 . ?
C28 H28B 0.9900 . ?
C33 C34 1.488(9) . ?
C33 C32B 2.034(14) . ?
C33 H33A 0.9900 . ?
C33 H33B 0.9900 . ?
C34 H34A 0.9900 . ?
C34 H34B 0.9900 . ?
C35 C36 1.506(8) . ?
C35 H35A 0.9900 . ?
C35 H35B 0.9900 . ?
C36 H36A 0.9900 . ?
C36 H36B 0.9900 . ?
C19A C20A 1.457(8) . ?
C19A H19A 0.9900 . ?
C19A H19B 0.9900 . ?
C20A H20A 0.9900 . ?
C20A H20B 0.9900 . ?
C29A C30A 1.453(7) . ?
C29A H29A 0.9900 . ?
C29A H29B 0.9900 . ?
C30A H30A 0.9900 . ?
C30A H30B 0.9900 . ?
C31A C32A 1.459(7) . ?
C31A H31A 0.9900 . ?
C31A H31B 0.9900 . ?
C32A H32A 0.9900 . ?
C32A H32B 0.9900 . ?
C19B C20B 1.3518 . ?
C19B H19C 0.9900 . ?
C19B H19D 0.9900 . ?
C20B H20C 0.9900 . ?
C20B H20D 0.9900 . ?
C29B C30B 1.446(8) . ?
C29B H29C 0.9900 . ?
C29B H29D 0.9900 . ?
C30B H30C 0.9900 . ?
C30B H30D 0.9900 . ?
C31B C32B 1.442(8) . ?
C31B H31C 0.9900 . ?
C31B H31D 0.9900 . ?
C32B H32C 0.9900 . ?
C32B H32D 0.9900 . ?
I1 C42 2.154(5) . ?
I2 C37 2.153(5) . ?
F1 C37 1.337(5) . ?
F2 C37 1.325(5) . ?
F3 C38 1.340(5) . ?
F4 C38 1.338(5) . ?
F5 C39 1.333(5) . ?
F6 C39 1.335(5) . ?
F7 C40 1.337(5) . ?
F8 C40 1.329(5) . ?
F9 C41 1.344(5) . ?
F10 C41 1.346(5) . ?
F11 C42 1.353(6) . ?
F12 C42 1.349(6) . ?
C37 C38 1.567(6) . ?
C38 C39 1.547(6) . ?
C39 C40 1.561(5) . ?
C40 C41 1.557(6) . ?
C41 C42 1.546(6) . ?
I3A C43A 2.170(5) . ?
F13A C43A 1.349(5) . ?
F14A C43A 1.327(5) . ?
F15A C44A 1.340(4) . ?
F16A C44A 1.370(4) . ?
C43A C44A 1.529(5) . ?
C44A C45 1.553(5) . ?
I3B C43B 2.173(10) . ?
F13B C43B 1.346(7) . ?
F14B C43B 1.341(7) . ?
F15B C44B 1.348(8) . ?
F16B C44B 1.350(8) . ?
C43B C44B 1.564(8) . ?
C44B C45 1.561(7) . ?
I4 C48 2.154(4) . ?
F17 C45 1.340(4) . ?
F18 C45 1.354(4) . ?
F19 C46 1.354(5) . ?
F20 C46 1.330(5) . ?
F21 C47 1.342(5) . ?
F22 C47 1.358(5) . ?
F23 C48 1.368(5) . ?
F24 C48 1.333(5) . ?
C45 C46 1.542(6) . ?
C46 C47 1.565(6) . ?
C47 C48 1.538(6) . ?
I5 C49B 2.149(6) . ?
I5 C49A 2.172(6) . ?
I6A C54A 2.153(5) . ?
F25A C49A 1.352(7) . ?
F26A C49A 1.353(7) . ?
F27A C50A 1.341(7) . ?
F28A C50A 1.350(7) . ?
F29A C51A 1.349(7) . ?
F30A C51A 1.336(6) . ?
F31A C52A 1.355(7) . ?
F32A C52A 1.352(7) . ?
F33A C53A 1.352(8) . ?
F34A C53A 1.337(7) . ?
F35A C54A 1.340(7) . ?
F36A C54A 1.354(7) . ?
C49A C50A 1.547(7) . ?
C50A C51A 1.557(7) . ?
C51A C52A 1.543(7) . ?
C52A C53A 1.556(7) . ?
C53A C54A 1.524(7) . ?
I6B C54B 2.157(6) . ?
F25B C49B 1.343(8) . ?
F26B C49B 1.345(8) . ?
F27B C50B 1.337(8) . ?
F28B C50B 1.346(8) . ?
F29B C51B 1.337(7) . ?
F30B C51B 1.348(7) . ?
F31B C52B 1.343(7) . ?
F32B C52B 1.348(8) . ?
F33B C53B 1.353(7) . ?
F34B C53B 1.360(7) . ?
F35B C54B 1.344(8) . ?
F36B C54B 1.347(8) . ?
C49B C50B 1.521(8) . ?
C50B C51B 1.555(8) . ?
C51B C52B 1.539(7) . ?
C52B C53B 1.554(7) . ?
C53B C54B 1.527(7) . ?

loop_
_geom_angle_atom_site_label_1
_geom_angle_atom_site_label_2
_geom_angle_atom_site_label_3
_geom_angle
_geom_angle_site_symmetry_1
_geom_angle_site_symmetry_3
_geom_angle_publ_flag
O3 Na1 O6 105.47(12) . . ?
O3 Na1 O1 82.45(12) . . ?
O6 Na1 O1 169.44(14) . . ?
O3 Na1 O5 169.16(15) . . ?
O6 Na1 O5 68.27(12) . . ?
O1 Na1 O5 104.95(12) . . ?
O3 Na1 O2 108.48(13) . . ?
O6 Na1 O2 103.72(14) . . ?
O1 Na1 O2 66.67(13) . . ?
O5 Na1 O2 81.96(13) . . ?
O3 Na1 O4 65.46(12) . . ?
O6 Na1 O4 82.17(12) . . ?
O1 Na1 O4 107.76(12) . . ?
O5 Na1 O4 104.32(13) . . ?
O2 Na1 O4 172.77(13) . . ?
O3 Na1 N2 108.67(13) . . ?
O6 Na1 N2 114.54(13) . . ?
O1 Na1 N2 68.20(12) . . ?
O5 Na1 N2 67.93(12) . . ?
O2 Na1 N2 115.37(12) . . ?
O4 Na1 N2 64.82(11) . . ?
O3 Na1 N1 68.33(13) . . ?
O6 Na1 N1 66.79(13) . . ?
O1 Na1 N1 111.03(14) . . ?
O5 Na1 N1 114.98(13) . . ?
O2 Na1 N1 66.34(13) . . ?
O4 Na1 N1 113.15(12) . . ?
N2 Na1 N1 177.00(13) . . ?
C2 O1 C3 114.8(4) . . ?
C2 O1 Na1 113.9(3) . . ?
C3 O1 Na1 113.9(3) . . ?
C4 O2 C5 113.7(4) . . ?
C4 O2 Na1 113.4(3) . . ?
C5 O2 Na1 115.5(3) . . ?
C8 O3 C9 113.6(4) . . ?
C8 O3 Na1 113.2(3) . . ?
C9 O3 Na1 118.4(3) . . ?
C11 O4 C10 113.3(4) . . ?
C11 O4 Na1 113.8(3) . . ?
C10 O4 Na1 109.0(3) . . ?
C15 O5 C14 113.8(4) . . ?
C15 O5 Na1 112.9(3) . . ?
C14 O5 Na1 115.1(3) . . ?
C16 O6 C17 113.9(4) . . ?
C16 O6 Na1 112.5(3) . . ?
C17 O6 Na1 116.3(3) . . ?
C18 N1 C6 112.1(5) . . ?
C18 N1 C7 112.0(4) . . ?
C6 N1 C7 109.9(4) . . ?
C18 N1 Na1 107.6(3) . . ?
C6 N1 Na1 109.4(3) . . ?
C7 N1 Na1 105.5(3) . . ?
C12 N2 C13 110.4(4) . . ?
C12 N2 C1 111.7(4) . . ?
C13 N2 C1 110.5(3) . . ?
C12 N2 Na1 111.5(3) . . ?
C13 N2 Na1 106.5(3) . . ?
C1 N2 Na1 106.1(3) . . ?
N2 C1 C2 110.3(4) . . ?
N2 C1 H1A 109.6 . . ?
C2 C1 H1A 109.6 . . ?
N2 C1 H1B 109.6 . . ?
C2 C1 H1B 109.6 . . ?
H1A C1 H1B 108.1 . . ?
O1 C2 C1 112.3(4) . . ?
O1 C2 H2A 109.1 . . ?
C1 C2 H2A 109.1 . . ?
O1 C2 H2B 109.1 . . ?
C1 C2 H2B 109.1 . . ?
H2A C2 H2B 107.9 . . ?
O1 C3 C4 108.9(4) . . ?
O1 C3 H3A 109.9 . . ?
C4 C3 H3A 109.9 . . ?
O1 C3 H3B 109.9 . . ?
C4 C3 H3B 109.9 . . ?
H3A C3 H3B 108.3 . . ?
O2 C4 C3 107.4(4) . . ?
O2 C4 H4A 110.2 . . ?
C3 C4 H4A 110.2 . . ?
O2 C4 H4B 110.2 . . ?
C3 C4 H4B 110.2 . . ?
H4A C4 H4B 108.5 . . ?
O2 C5 C6 111.1(4) . . ?
O2 C5 H5A 109.4 . . ?
C6 C5 H5A 109.4 . . ?
O2 C5 H5B 109.4 . . ?
C6 C5 H5B 109.4 . . ?
H5A C5 H5B 108.0 . . ?
N1 C6 C5 110.5(4) . . ?
N1 C6 H6A 109.6 . . ?
C5 C6 H6A 109.6 . . ?
N1 C6 H6B 109.6 . . ?
C5 C6 H6B 109.6 . . ?
H6A C6 H6B 108.1 . . ?
C8 C7 N1 110.0(4) . . ?
C8 C7 H7A 109.7 . . ?
N1 C7 H7A 109.7 . . ?
C8 C7 H7B 109.7 . . ?
N1 C7 H7B 109.7 . . ?
H7A C7 H7B 108.2 . . ?
O3 C8 C7 113.6(4) . . ?
O3 C8 H8A 108.9 . . ?
C7 C8 H8A 108.9 . . ?
O3 C8 H8B 108.9 . . ?
C7 C8 H8B 108.9 . . ?
H8A C8 H8B 107.7 . . ?
O3 C9 C10 107.5(4) . . ?
O3 C9 H9A 110.2 . . ?
C10 C9 H9A 110.2 . . ?
O3 C9 H9B 110.2 . . ?
C10 C9 H9B 110.2 . . ?
H9A C9 H9B 108.5 . . ?
O4 C10 C9 108.1(4) . . ?
O4 C10 H10A 110.1 . . ?
C9 C10 H10A 110.1 . . ?
O4 C10 H10B 110.1 . . ?
C9 C10 H10B 110.1 . . ?
H10A C10 H10B 108.4 . . ?
O4 C11 C12 113.3(4) . . ?
O4 C11 H11A 108.9 . . ?
C12 C11 H11A 108.9 . . ?
O4 C11 H11B 108.9 . . ?
C12 C11 H11B 108.9 . . ?
H11A C11 H11B 107.7 . . ?
N2 C12 C11 111.7(4) . . ?
N2 C12 H12A 109.3 . . ?
C11 C12 H12A 109.3 . . ?
N2 C12 H12B 109.3 . . ?
C11 C12 H12B 109.3 . . ?
H12A C12 H12B 107.9 . . ?
N2 C13 C14 111.7(4) . . ?
N2 C13 H13A 109.3 . . ?
C14 C13 H13A 109.3 . . ?
N2 C13 H13B 109.3 . . ?
C14 C13 H13B 109.3 . . ?
H13A C13 H13B 107.9 . . ?
O5 C14 C13 113.1(4) . . ?
O5 C14 H14A 109.0 . . ?
C13 C14 H14A 109.0 . . ?
O5 C14 H14B 109.0 . . ?
C13 C14 H14B 109.0 . . ?
H14A C14 H14B 107.8 . . ?
O5 C15 C16 107.6(4) . . ?
O5 C15 H15A 110.2 . . ?
C16 C15 H15A 110.2 . . ?
O5 C15 H15B 110.2 . . ?
C16 C15 H15B 110.2 . . ?
H15A C15 H15B 108.5 . . ?
O6 C16 C15 106.4(4) . . ?
O6 C16 H16A 110.5 . . ?
C15 C16 H16A 110.5 . . ?
O6 C16 H16B 110.5 . . ?
C15 C16 H16B 110.5 . . ?
H16A C16 H16B 108.6 . . ?
O6 C17 C18 112.3(4) . . ?
O6 C17 H17A 109.1 . . ?
C18 C17 H17A 109.1 . . ?
O6 C17 H17B 109.1 . . ?
C18 C17 H17B 109.1 . . ?
H17A C17 H17B 107.9 . . ?
N1 C18 C17 112.2(5) . . ?
N1 C18 H18A 109.2 . . ?
C17 C18 H18A 109.2 . . ?
N1 C18 H18B 109.2 . . ?
C17 C18 H18B 109.2 . . ?
H18A C18 H18B 107.9 . . ?
O11 Na2 O8 164.29(17) . . ?
O11 Na2 O10 105.09(16) . . ?
O8 Na2 O10 88.27(14) . . ?
O11 Na2 O7 101.54(17) . . ?
O8 Na2 O7 66.00(14) . . ?
O10 Na2 O7 106.94(14) . . ?
O11 Na2 O12 67.57(14) . . ?
O8 Na2 O12 100.31(13) . . ?
O10 Na2 O12 169.01(15) . . ?
O7 Na2 O12 83.00(14) . . ?
O11 Na2 O9 85.97(16) . . ?
O8 Na2 O9 107.52(13) . . ?
O10 Na2 O9 64.99(13) . . ?
O7 Na2 O9 170.45(15) . . ?
O12 Na2 O9 105.51(13) . . ?
O11 Na2 N4 65.99(12) . . ?
O8 Na2 N4 113.89(13) . . ?
O10 Na2 N4 65.93(12) . . ?
O7 Na2 N4 65.97(12) . . ?
O12 Na2 N4 115.73(13) . . ?
O9 Na2 N4 112.75(12) . . ?
O11 Na2 N3 113.66(14) . . ?
O8 Na2 N3 67.04(13) . . ?
O10 Na2 N3 112.53(13) . . ?
O7 Na2 N3 115.96(13) . . ?
O12 Na2 N3 65.51(13) . . ?
O9 Na2 N3 65.24(11) . . ?
N4 Na2 N3 177.98(13) . . ?
C21 O7 C20B 106.1(7) . . ?
C21 O7 C20A 119.7(6) . . ?
C20B O7 C20A 15.3(10) . . ?
C21 O7 Na2 116.4(4) . . ?
C20B O7 Na2 119.7(4) . . ?
C20A O7 Na2 113.9(4) . . ?
C22 O8 C23 116.1(4) . . ?
C22 O8 Na2 112.1(3) . . ?
C23 O8 Na2 114.5(3) . . ?
C27 O9 C26 113.6(4) . . ?
C27 O9 Na2 108.5(3) . . ?
C26 O9 Na2 114.8(3) . . ?
C28 O10 C29A 116.9(5) . . ?
C28 O10 C29B 101.2(7) . . ?
C29A O10 C29B 20.4(10) . . ?
C28 O10 Na2 117.9(3) . . ?
C29A O10 Na2 115.4(4) . . ?
C29B O10 Na2 118.2(5) . . ?
C33 O11 C32A 120.4(5) . . ?
C33 O11 C32B 89.6(7) . . ?
C32A O11 C32B 35.2(7) . . ?
C33 O11 Na2 112.8(3) . . ?
C32A O11 Na2 114.4(4) . . ?
C32B O11 Na2 119.3(5) . . ?
C35 O12 C34 114.7(5) . . ?
C35 O12 Na2 116.6(3) . . ?
C34 O12 Na2 110.6(3) . . ?
C25 N3 C36 111.0(4) . . ?
C25 N3 C24 109.9(4) . . ?
C36 N3 C24 111.3(4) . . ?
C25 N3 Na2 110.0(3) . . ?
C36 N3 Na2 108.0(3) . . ?
C24 N3 Na2 106.5(3) . . ?
C30B N4 C19A 79.2(7) . . ?
C30B N4 C31B 124.6(9) . . ?
C19A N4 C31B 131.8(10) . . ?
C30B N4 C31A 139.5(8) . . ?
C19A N4 C31A 113.8(6) . . ?
C31B N4 C31A 20.8(8) . . ?
C30B N4 C19B 108.8(9) . . ?
C19A N4 C19B 29.9(7) . . ?
C31B N4 C19B 108.2(10) . . ?
C31A N4 C19B 87.9(7) . . ?
C30B N4 C30A 36.9(6) . . ?
C19A N4 C30A 111.6(5) . . ?
C31B N4 C30A 89.0(7) . . ?
C31A N4 C30A 107.3(5) . . ?
C19B N4 C30A 137.1(7) . . ?
C30B N4 Na2 102.4(6) . . ?
C19A N4 Na2 108.4(4) . . ?
C31B N4 Na2 105.8(6) . . ?
C31A N4 Na2 108.4(3) . . ?
C19B N4 Na2 105.3(4) . . ?
C30A N4 Na2 107.2(3) . . ?
O7 C21 C22 108.3(5) . . ?
O7 C21 H21A 110.0 . . ?
C22 C21 H21A 110.0 . . ?
O7 C21 H21B 110.0 . . ?
C22 C21 H21B 110.0 . . ?
H21A C21 H21B 108.4 . . ?
O8 C22 C21 110.4(5) . . ?
O8 C22 H22A 109.6 . . ?
C21 C22 H22A 109.6 . . ?
O8 C22 H22B 109.6 . . ?
C21 C22 H22B 109.6 . . ?
H22A C22 H22B 108.1 . . ?
O8 C23 C24 113.1(4) . . ?
O8 C23 H23A 109.0 . . ?
C24 C23 H23A 109.0 . . ?
O8 C23 H23B 109.0 . . ?
C24 C23 H23B 109.0 . . ?
H23A C23 H23B 107.8 . . ?
N3 C24 C23 110.8(4) . . ?
N3 C24 H24A 109.5 . . ?
C23 C24 H24A 109.5 . . ?
N3 C24 H24B 109.5 . . ?
C23 C24 H24B 109.5 . . ?
H24A C24 H24B 108.1 . . ?
N3 C25 C26 111.0(4) . . ?
N3 C25 H25A 109.4 . . ?
C26 C25 H25A 109.4 . . ?
N3 C25 H25B 109.4 . . ?
C26 C25 H25B 109.4 . . ?
H25A C25 H25B 108.0 . . ?
O9 C26 C25 111.8(4) . . ?
O9 C26 H26A 109.3 . . ?
C25 C26 H26A 109.3 . . ?
O9 C26 H26B 109.3 . . ?
C25 C26 H26B 109.3 . . ?
H26A C26 H26B 107.9 . . ?
O9 C27 C28 107.7(4) . . ?
O9 C27 H27A 110.2 . . ?
C28 C27 H27A 110.2 . . ?
O9 C27 H27B 110.2 . . ?
C28 C27 H27B 110.2 . . ?
H27A C27 H27B 108.5 . . ?
O10 C28 C27 106.7(4) . . ?
O10 C28 H28A 110.4 . . ?
C27 C28 H28A 110.4 . . ?
O10 C28 H28B 110.4 . . ?
C27 C28 H28B 110.4 . . ?
H28A C28 H28B 108.6 . . ?
O11 C33 C34 108.6(5) . . ?
O11 C33 C32B 45.9(4) . . ?
C34 C33 C32B 153.7(5) . . ?
O11 C33 H33A 110.0 . . ?
C34 C33 H33A 110.0 . . ?
C32B C33 H33A 88.8 . . ?
O11 C33 H33B 110.0 . . ?
C34 C33 H33B 110.0 . . ?
C32B C33 H33B 79.6 . . ?
H33A C33 H33B 108.4 . . ?
O12 C34 C33 108.1(5) . . ?
O12 C34 H34A 110.1 . . ?
C33 C34 H34A 110.1 . . ?
O12 C34 H34B 110.1 . . ?
C33 C34 H34B 110.1 . . ?
H34A C34 H34B 108.4 . . ?
O12 C35 C36 113.0(4) . . ?
O12 C35 H35A 109.0 . . ?
C36 C35 H35A 109.0 . . ?
O12 C35 H35B 109.0 . . ?
C36 C35 H35B 109.0 . . ?
H35A C35 H35B 107.8 . . ?
N3 C36 C35 112.2(5) . . ?
N3 C36 H36A 109.2 . . ?
C35 C36 H36A 109.2 . . ?
N3 C36 H36B 109.2 . . ?
C35 C36 H36B 109.2 . . ?
H36A C36 H36B 107.9 . . ?
C20A C19A N4 110.4(7) . . ?
C20A C19A H19A 109.6 . . ?
N4 C19A H19A 109.6 . . ?
C20A C19A H19B 109.6 . . ?
N4 C19A H19B 109.6 . . ?
H19A C19A H19B 108.1 . . ?
O7 C20A C19A 110.9(7) . . ?
O7 C20A H20A 109.5 . . ?
C19A C20A H20A 109.5 . . ?
O7 C20A H20B 109.5 . . ?
C19A C20A H20B 109.5 . . ?
H20A C20A H20B 108.0 . . ?
O10 C29A C30A 108.8(6) . . ?
O10 C29A H29A 109.9 . . ?
C30A C29A H29A 109.9 . . ?
O10 C29A H29B 109.9 . . ?
C30A C29A H29B 109.9 . . ?
H29A C29A H29B 108.3 . . ?
C29A C30A N4 110.9(6) . . ?
C29A C30A H30A 109.5 . . ?
N4 C30A H30A 109.5 . . ?
C29A C30A H30B 109.5 . . ?
N4 C30A H30B 109.5 . . ?
H30A C30A H30B 108.1 . . ?
C32A C31A N4 111.9(6) . . ?
C32A C31A H31A 109.2 . . ?
N4 C31A H31A 109.2 . . ?
C32A C31A H31B 109.2 . . ?
N4 C31A H31B 109.2 . . ?
H31A C31A H31B 107.9 . . ?
O11 C32A C31A 108.7(5) . . ?
O11 C32A H32A 109.9 . . ?
C31A C32A H32A 109.9 . . ?
O11 C32A H32B 109.9 . . ?
C31A C32A H32B 109.9 . . ?
H32A C32A H32B 108.3 . . ?
C20B C19B N4 121.1(4) . . ?
C20B C19B H19C 107.1 . . ?
N4 C19B H19C 107.1 . . ?
C20B C19B H19D 107.1 . . ?
N4 C19B H19D 107.1 . . ?
H19C C19B H19D 106.8 . . ?
C19B C20B O7 116.1(5) . . ?
C19B C20B H20C 108.3 . . ?
O7 C20B H20C 108.3 . . ?
C19B C20B H20D 108.3 . . ?
O7 C20B H20D 108.3 . . ?
H20C C20B H20D 107.4 . . ?
C30B C29B O10 110.8(9) . . ?
C30B C29B H29C 109.5 . . ?
O10 C29B H29C 109.5 . . ?
C30B C29B H29D 109.5 . . ?
O10 C29B H29D 109.5 . . ?
H29C C29B H29D 108.1 . . ?
C29B C30B N4 111.4(10) . . ?
C29B C30B H30C 109.3 . . ?
N4 C30B H30C 109.3 . . ?
C29B C30B H30D 109.3 . . ?
N4 C30B H30D 109.3 . . ?
H30C C30B H30D 108.0 . . ?
C32B C31B N4 113.0(9) . . ?
C32B C31B H31C 109.0 . . ?
N4 C31B H31C 109.0 . . ?
C32B C31B H31D 109.0 . . ?
N4 C31B H31D 109.0 . . ?
H31C C31B H31D 107.8 . . ?
C31B C32B O11 109.0(9) . . ?
C31B C32B C33 147.6(8) . . ?
O11 C32B C33 44.4(4) . . ?
C31B C32B H32C 109.9 . . ?
O11 C32B H32C 109.9 . . ?
C33 C32B H32C 98.6 . . ?
C31B C32B H32D 109.9 . . ?
O11 C32B H32D 109.9 . . ?
C33 C32B H32D 73.7 . . ?
H32C C32B H32D 108.3 . . ?
F2 C37 F1 107.9(4) . . ?
F2 C37 C38 108.8(4) . . ?
F1 C37 C38 107.4(4) . . ?
F2 C37 I2 110.8(3) . . ?
F1 C37 I2 109.8(3) . . ?
C38 C37 I2 112.0(3) . . ?
F4 C38 F3 108.4(3) . . ?
F4 C38 C39 108.3(3) . . ?
F3 C38 C39 109.3(3) . . ?
F4 C38 C37 107.8(3) . . ?
F3 C38 C37 107.6(3) . . ?
C39 C38 C37 115.2(3) . . ?
F5 C39 F6 109.4(4) . . ?
F5 C39 C38 108.6(3) . . ?
F6 C39 C38 107.8(4) . . ?
F5 C39 C40 108.4(4) . . ?
F6 C39 C40 107.8(3) . . ?
C38 C39 C40 114.7(3) . . ?
F8 C40 F7 109.5(4) . . ?
F8 C40 C41 108.6(3) . . ?
F7 C40 C41 107.4(4) . . ?
F8 C40 C39 108.4(3) . . ?
F7 C40 C39 108.6(3) . . ?
C41 C40 C39 114.3(3) . . ?
F9 C41 F10 108.0(3) . . ?
F9 C41 C42 107.8(3) . . ?
F10 C41 C42 107.7(3) . . ?
F9 C41 C40 109.3(3) . . ?
F10 C41 C40 108.4(3) . . ?
C42 C41 C40 115.5(3) . . ?
F12 C42 F11 107.2(4) . . ?
F12 C42 C41 109.0(4) . . ?
F11 C42 C41 108.5(4) . . ?
F12 C42 I1 110.2(3) . . ?
F11 C42 I1 109.6(3) . . ?
C41 C42 I1 112.2(3) . . ?
F14A C43A F13A 107.8(4) . . ?
F14A C43A C44A 109.6(4) . . ?
F13A C43A C44A 107.7(4) . . ?
F14A C43A I3A 109.4(3) . . ?
F13A C43A I3A 110.0(3) . . ?
C44A C43A I3A 112.1(3) . . ?
F15A C44A F16A 107.3(4) . . ?
F15A C44A C43A 108.7(3) . . ?
F16A C44A C43A 106.9(3) . . ?
F15A C44A C45 108.3(3) . . ?
F16A C44A C45 106.8(3) . . ?
C43A C44A C45 118.3(4) . . ?
F14B C43B F13B 110.8(11) . . ?
F14B C43B C44B 106.1(7) . . ?
F13B C43B C44B 106.3(7) . . ?
F14B C43B I3B 114.5(9) . . ?
F13B C43B I3B 110.0(8) . . ?
C44B C43B I3B 108.8(6) . . ?
F15B C44B F16B 110.5(12) . . ?
F15B C44B C45 106.2(15) . . ?
F16B C44B C45 104.5(17) . . ?
F15B C44B C43B 105.9(7) . . ?
F16B C44B C43B 105.3(7) . . ?
C45 C44B C43B 124.2(7) . . ?
F17 C45 F18 107.9(3) . . ?
F17 C45 C46 108.0(3) . . ?
F18 C45 C46 108.6(3) . . ?
F17 C45 C44A 108.1(3) . . ?
F18 C45 C44A 105.4(3) . . ?
C46 C45 C44A 118.4(3) . . ?
F17 C45 C44B 106.7(5) . . ?
F18 C45 C44B 106.1(5) . . ?
C46 C45 C44B 119.2(7) . . ?
C44A C45 C44B 1.5(5) . . ?
F20 C46 F19 110.2(3) . . ?
F20 C46 C45 109.0(3) . . ?
F19 C46 C45 107.3(3) . . ?
F20 C46 C47 107.9(3) . . ?
F19 C46 C47 106.8(3) . . ?
C45 C46 C47 115.5(3) . . ?
F21 C47 F22 107.7(3) . . ?
F21 C47 C48 108.7(3) . . ?
F22 C47 C48 109.5(3) . . ?
F21 C47 C46 108.6(3) . . ?
F22 C47 C46 106.7(3) . . ?
C48 C47 C46 115.4(3) . . ?
F24 C48 F23 108.0(3) . . ?
F24 C48 C47 108.6(4) . . ?
F23 C48 C47 107.3(3) . . ?
F24 C48 I4 110.8(3) . . ?
F23 C48 I4 108.8(3) . . ?
C47 C48 I4 113.2(3) . . ?
C49B I5 C49A 10.7(3) . . ?
F25A C49A F26A 106.0(7) . . ?
F25A C49A C50A 107.2(8) . . ?
F26A C49A C50A 108.7(6) . . ?
F25A C49A I5 108.8(6) . . ?
F26A C49A I5 109.9(5) . . ?
C50A C49A I5 115.8(4) . . ?
F27A C50A F28A 108.9(8) . . ?
F27A C50A C49A 107.1(6) . . ?
F28A C50A C49A 108.2(9) . . ?
F27A C50A C51A 106.7(6) . . ?
F28A C50A C51A 109.5(9) . . ?
C49A C50A C51A 116.3(5) . . ?
F30A C51A F29A 108.6(6) . . ?
F30A C51A C52A 108.7(5) . . ?
F29A C51A C52A 107.9(5) . . ?
F30A C51A C50A 108.2(5) . . ?
F29A C51A C50A 108.3(5) . . ?
C52A C51A C50A 114.9(5) . . ?
F32A C52A F31A 107.6(7) . . ?
F32A C52A C51A 108.9(6) . . ?
F31A C52A C51A 107.6(5) . . ?
F32A C52A C53A 109.0(8) . . ?
F31A C52A C53A 105.7(5) . . ?
C51A C52A C53A 117.6(5) . . ?
F34A C53A F33A 108.6(6) . . ?
F34A C53A C54A 107.7(5) . . ?
F33A C53A C54A 108.4(6) . . ?
F34A C53A C52A 108.1(5) . . ?
F33A C53A C52A 104.7(7) . . ?
C54A C53A C52A 119.1(5) . . ?
F35A C54A F36A 107.0(6) . . ?
F35A C54A C53A 110.2(6) . . ?
F36A C54A C53A 107.5(5) . . ?
F35A C54A I6A 109.3(4) . . ?
F36A C54A I6A 110.9(4) . . ?
C53A C54A I6A 111.8(4) . . ?
F25B C49B F26B 107.9(9) . . ?
F25B C49B C50B 111.2(10) . . ?
F26B C49B C50B 109.3(7) . . ?
F25B C49B I5 111.2(7) . . ?
F26B C49B I5 109.1(6) . . ?
C50B C49B I5 108.0(5) . . ?
F27B C50B F28B 107.8(9) . . ?
F27B C50B C49B 108.9(7) . . ?
F28B C50B C49B 109.3(11) . . ?
F27B C50B C51B 108.0(7) . . ?
F28B C50B C51B 107.5(11) . . ?
C49B C50B C51B 115.1(6) . . ?
F29B C51B F30B 108.8(7) . . ?
F29B C51B C52B 109.6(6) . . ?
F30B C51B C52B 107.9(6) . . ?
F29B C51B C50B 109.6(7) . . ?
F30B C51B C50B 106.9(6) . . ?
C52B C51B C50B 113.8(6) . . ?
F31B C52B F32B 108.6(8) . . ?
F31B C52B C51B 109.4(6) . . ?
F32B C52B C51B 107.9(8) . . ?
F31B C52B C53B 109.1(6) . . ?
F32B C52B C53B 107.3(9) . . ?
C51B C52B C53B 114.4(6) . . ?
F33B C53B F34B 106.3(6) . . ?
F33B C53B C54B 109.1(6) . . ?
F34B C53B C54B 108.9(6) . . ?
F33B C53B C52B 110.0(6) . . ?
F34B C53B C52B 106.3(6) . . ?
C54B C53B C52B 115.9(5) . . ?
F35B C54B F36B 109.6(8) . . ?
F35B C54B C53B 107.0(8) . . ?
F36B C54B C53B 107.9(6) . . ?
F35B C54B I6B 109.8(7) . . ?
F36B C54B I6B 110.0(5) . . ?
C53B C54B I6B 112.4(5) . . ?


_diffrn_measured_fraction_theta_max 0.904
_diffrn_reflns_theta_full        30.00
_diffrn_measured_fraction_theta_full 1.000
_refine_diff_density_max         1.881
_refine_diff_density_min         -0.530
_refine_diff_density_rms         0.108
